108
#Comment!
LJ  -0.33615282494877086   -0.21086128743384641   -0.0020959839837895924
LJ  0.47412657383107426   -0.03182060141285644   -0.20633167583562173
LJ  0.32961147773855065   -0.012587887530556056   0.018832646392876899
LJ  -0.42387929076449854   0.10254254214396319   0.0014079211003923085
LJ  0.012955898598797817   0.027410283822801102   0.11183174391613979
LJ  -0.20625737735167213   -0.1454850966414353   0.4267853027135769
LJ  -0.19791641423798001   0.36334789482225044   0.055695965463258855
LJ  0.064296950336607012   0.49128371435705936   -0.035416354262655561
LJ  -0.44204583948159765   -0.080419341184497797   -0.084886118881135619
LJ  0.060081588903459965   0.034422563744551209   0.414306934761979
LJ  0.11214852066695626   -0.32233606059110675   -0.1834620048036916
LJ  0.18507383213730016   -0.079608672918211873   0.35625979642334576
LJ  0.39098871028572929   0.34817290195863099   0.30718153675241311
LJ  -0.066179354165453036   -0.18653326675937631   0.46420620463455553
LJ  0.36036382429917219   0.12732531498381147   -0.22456011811495397
LJ  -0.24749858141913961   0.27791752643894874   0.46410513771185563
LJ  0.31355400793332705   0.039336741548436464   0.19594744051206167
LJ  -0.2708948922734008   -0.36221122746332024   0.39654232650140375
LJ  -0.15507528192665859   0.22071589978075415   0.15746760496100098
LJ  -0.40200715942927651   -0.20590713402315169   -0.035156524243820299
LJ  -0.45789348824929493   -0.33479993536261299   -0.25690635278216672
LJ  0.29145843489273782   0.4063895740212331   0.10424191197958965
LJ  -0.21009805944553295   -0.034365119173132577   -0.10966851008187692
LJ  -0.47502974296690781   -0.16448669283144685   -0.15223506688034505
LJ  -0.25200491058279939   0.21356970674466216   0.34252269177135941
LJ  -0.10925421979157354   -0.065337735377228215   0.34251462504780494
LJ  0.10966980747312068   -0.29424846929836507   -0.058680138856549768
LJ  -0.038305735202988855   0.45071764914386742   0.072046737335297539
LJ  0.08561070500339639   0.11186877933024018   0.36681925697240381
LJ  0.17513866745239073   -0.10032146776843513   -0.41654930768032145
LJ  -0.18989318917465051   0.48374183921117003   -0.1245678654013665
LJ  -0.16631183206618733   -0.13111091544104972   0.35625899538871914
LJ  -0.39063755870209638   -0.48601446043529317   -0.28994414251137363
LJ  0.47511049276251899   -0.063307017481427807   0.48149195143575146
LJ  -0.46902506303495384   -0.18685903022015907   -0.25816491787267443
LJ  -0.17683012428543446   -0.17275922547032013   0.15875911542335014
LJ  -0.00506653800809028   -0.43260148122163933   -0.031849881499665285
LJ  0.25207785243894965   -0.013296095252455429   0.12509880254094344
LJ  0.41890927165333508   -0.34479312569129866   -0.4974958794025427
LJ  -0.37696759356999887   -0.31962118543749196   0.42214150030798742
LJ  -0.3442690405155609   -0.13103190400181264   0.076453835957941238
LJ  -0.2435312806006068   -0.13802497211185538   0.11411288289460186
LJ  0.36752407375126905   0.17350894384316184   -0.049986945579988409
LJ  -0.46439457251482391   -0.19195084135772197   -0.42229767433485527
LJ  0.36953476071930746   -0.031945003296655491   -0.41291461930813128
LJ  -0.48757072075415508   -0.15035381587919028   -0.025295099679348565
LJ  0.22560249861123793   0.20887571407504546   0.1058553561898856
LJ  -0.32352720078221986   -0.0080407791853340221   -0.0086822129720997357
LJ  0.42429872071808628   0.16388967810968921   0.3896209924409153
LJ  -0.47703480420629474   -0.4064551380779195   -0.12664199802666376
LJ  0.3706781776020352   0.08012813594151294   0.038234884036939282
LJ  -0.42358835450214605   0.25916260120265244   -0.20885520950855571
LJ  -0.41110746459313102   0.44993880181264689   -0.23713006061278735
LJ  -0.48886461462639064   -0.0061595395824467812   -0.0068481503656895532
LJ  -0.38797420429928037   -0.017208002803170998   0.04820125207765566
LJ  -0.34671433435792587   -0.44031750183484558   0.45219610435567298
LJ  -0.14855670440393681   0.47666693350267642   0.0086035835958698081
LJ  -0.026683152349820941   -0.28193123012642179   0.46021584796936005
LJ  0.044888432055787519   -0.075856175806131576   0.22015719554791621
LJ  -0.35140830749425173   -0.095532190006419937   -0.10954788271941428
LJ  0.21636323396551363   -0.39921193982749453   0.14352632087397682
LJ  -0.061855908442693619   -0.46887588294174515   0.032413478982233353
LJ  -0.022116968754936562   -0.30598990839362028   -0.28567097076490822
LJ  -0.21471736491829971   -0.47049834085038805   -0.0091765567994939717
LJ  0.41543817278238226   0.14981007843073257   0.063426716145786127
LJ  -0.23353151966208568   -0.23532376687317541   -0.27778350182143918
LJ  0.057760617653294558   -0.36473018707389443   -0.041584537789271209
LJ  0.19628804301143851   0.20799349023799898   0.22889292815382992
LJ  -0.47826350097940518   0.08309749370281172   0.097761060585529996
LJ  -0.23675327602323765   -0.074655229418953931   0.4004626356405277
LJ  -0.26172966557188132   0.3321557206325495   0.28130061491708563
LJ  -0.14107386900129046   0.36464947569898776   -0.3043840976583248
LJ  -0.062172485409135426   -0.13454824453612924   0.062680749639813835
LJ  0.33148744271577113   0.013011717844692417   0.12523211389776842
LJ  0.15900186926636423   0.33119180355372407   0.31638500230486832
LJ  0.35458382755113571   -0.13401100436114782   -0.12302969174611539
LJ  0.16040888139352411   0.34746823222432177   -0.41495711600227497
LJ  0.23993310963604483   -0.12995363771351628   0.48549516238383034
LJ  0.10807392906604149   0.43139850413593162   0.39283168966114029
LJ  -0.39267144558062805   0.084209219666940754   -0.16525901490497261
LJ  0.29660849597831396   0.20552460793007343   0.033368273962173442
LJ  0.11271936798229307   -0.19402860956437953   0.24489026480671985
LJ  -0.45005642683423674   -0.090189798495679874   -0.24278974521320024
LJ  -0.14013109364543752   -0.18708089702362449   -0.078630128148339959
LJ  0.10660359842031798   0.11398072422830578   0.14432101852694207
LJ  -0.47959568828755456   0.19493523093305856   -0.17486460565410553
LJ  0.072104042555016609   -0.43956983697710905   -0.071318755975899664
LJ  0.20139971450208161   0.17437884053032565   0.33026885126834071
LJ  -0.21177520097180694   -0.2707428736439243   0.19716126515594617
LJ  0.41283650141551032   -0.3130666191469858   0.22671682637317783
LJ  0.24650638928285962   0.12152510304181648   -0.36346403286738416
LJ  -0.14676933795191499   0.041632155118264159   0.3332560214756039
LJ  -0.36956236726227687   -0.24152566159088998   -0.10810483504204538
LJ  -0.38770301121418022   -0.11517277346026096   0.015412259832721122
LJ  0.11505817582961234   0.36806563341455867   0.45626751937987886
LJ  -0.43426182209880843   -0.3554984960709533   0.36761194678468889
LJ  -0.4464526694456909   0.2967532939546666   -0.13524934515869627
LJ  0.13198416594356227   -0.37608005195678529   -0.078076163152326961
LJ  -0.058410865361538861   0.23555841468063582   -0.37041754854665992
LJ  -0.15274778077069409   0.14282387115659506   -0.0066612668250676547
LJ  0.12084237233952605   0.4730903451520268   -0.10497921989511996
LJ  -0.19657050564323392   0.14891870083601474   0.33206951977882104
LJ  -0.41799796993862093   -0.07130935672972942   -0.39428296325570245
LJ  -0.19370153575176616   0.22961089333755699   0.40526636302564784
LJ  0.46794535176417096   -0.249240179634554   0.23367036096956378
LJ  -0.28038576077114841   -0.058151048217657868   -0.056503018265312697
LJ  -0.018301213000900218   0.29714772066455025   0.17242233718964639
LJ  -0.4578915025682776   0.036088959321201229   -0.29587157512569506
