108
#Comment!
LJ  -0.33623486902546385   -0.21094775537724927   -0.0020546112250464967
LJ  0.47410474990471052   -0.0316946803076062   -0.20622856372198733
LJ  0.32964164179195438   -0.012572761411289811   0.018844921684730589
LJ  -0.42372995546539183   0.10273846161986892   0.0013860735502614875
LJ  0.012977127997308647   0.027492931756168227   0.11177348466441554
LJ  -0.20620688735880163   -0.14545504171344154   0.42682101853255977
LJ  -0.19797525660692947   0.36332674225287737   0.055600398031823907
LJ  0.064305360262050207   0.49113371763948899   -0.035476577101085621
LJ  -0.4422713416697972   -0.080482850461791253   -0.084787760818397645
LJ  0.060041070036138434   0.034437754687063303   0.41428709760721111
LJ  0.11221819378589962   -0.32228803147337309   -0.18346281414695015
LJ  0.18496393110612272   -0.079631996265082966   0.35630329329080512
LJ  0.3910657617278735   0.34806238242203646   0.30728866577440372
LJ  -0.066052340601440954   -0.18634512861082966   0.46438761833452147
LJ  0.36048336655347935   0.12731841222387993   -0.224528865866715
LJ  -0.2474332901684787   0.27785306689549777   0.46400416462229338
LJ  0.31356590350644226   0.039326365980651271   0.19589267649401954
LJ  -0.27077711750804051   -0.36215997576104364   0.39664132335903651
LJ  -0.1550808188127499   0.22081635367969471   0.15763884589097035
LJ  -0.40196274601960164   -0.20598921042227245   -0.035119018855643176
LJ  -0.45768742554965081   -0.33468982847453305   -0.25694849165247091
LJ  0.29154884303335959   0.40626760281877544   0.10416745134092481
LJ  -0.21018408434713762   -0.034403056703921867   -0.10966288447384141
LJ  -0.47517067683676417   -0.16445418418724406   -0.15225990167628684
LJ  -0.25190589843847389   0.21348567761904444   0.34245231791802777
LJ  -0.10921935030714262   -0.065319814674787258   0.34257595692832776
LJ  0.10957839088080971   -0.29430530507097391   -0.058656523896073239
LJ  -0.038394070203694911   0.45076396455148598   0.071964856080974915
LJ  0.085586734310823059   0.11180708728799856   0.36692287419935704
LJ  0.17507365287318907   -0.10014539594315955   -0.41638522626579794
LJ  -0.18991722193920446   0.48371009505726786   -0.12453912487264494
LJ  -0.16626276905035581   -0.1310926088759834   0.35633763463316726
LJ  -0.39058723419671609   -0.48591941590854604   -0.2900092521123197
LJ  0.47497097910325281   -0.063208473005574708   0.481519371013857
LJ  -0.4691325819349253   -0.18687710352666098   -0.25815361875361847
LJ  -0.17697322640262714   -0.17265858575336132   0.15865643528892215
LJ  -0.0050761514590897247   -0.43262455697542823   -0.031924979359324479
LJ  0.25219035776285625   -0.013339080650430353   0.12505476253268202
LJ  0.41895471101359355   -0.34479147034962582   -0.49741251108221468
LJ  -0.37696093392619606   -0.31959564993390666   0.42215159527048984
LJ  -0.3443806233867121   -0.13093266434807047   0.076397252790409181
LJ  -0.24353056510362556   -0.1380376065639464   0.11411481664246002
LJ  0.36739647184225183   0.17340014172610868   -0.049895463920523041
LJ  -0.46436498045463742   -0.19202936419450314   -0.42221393811642038
LJ  0.36966876611435939   -0.03200373505369665   -0.41302382101233148
LJ  -0.48761966305863358   -0.15032586514489815   -0.025356242923476432
LJ  0.22551559877377036   0.2088611897024045   0.10594679156835465
LJ  -0.323432169519422   -0.0082426234034893645   -0.0087264050354538946
LJ  0.42431552983731707   0.16375553245050159   0.38959110233353961
LJ  -0.47701176487249736   -0.40630658151821675   -0.1268036022903278
LJ  0.37059256421061415   0.080051998021061901   0.038261171174181749
LJ  -0.42351336528052957   0.2590407084829332   -0.20879557115144623
LJ  -0.41111003513345545   0.45022261851469181   -0.23722202226556971
LJ  -0.48866626752873976   -0.0060892359514243943   -0.006909164376174377
LJ  -0.38794704667014235   -0.017382182457490677   0.04828255016347148
LJ  -0.34686725606893326   -0.44016727423039892   0.45215090097930782
LJ  -0.14852513246965782   0.47658843893184555   0.008856879803453779
LJ  -0.026527385791781051   -0.28210885264532221   0.4600233809711588
LJ  0.044886931996254445   -0.075757928176618597   0.21995986486874389
LJ  -0.351519324756775   -0.095465022914476075   -0.10946230402937364
LJ  0.21640630847143691   -0.39904705720645672   0.14349603844740064
LJ  -0.061894515541188709   -0.46892515443421418   0.03237683343189595
LJ  -0.022171865469010732   -0.30611947494891251   -0.28565580585522293
LJ  -0.21469903986962163   -0.47064022161301106   -0.0091738124169224392
LJ  0.41554396289401158   0.14984757392547615   0.063330330266716306
LJ  -0.23356364723244905   -0.23519064010975896   -0.27795654964047589
LJ  0.057642728453218849   -0.364735732559899   -0.041548472480730528
LJ  0.19614157512705269   0.20784611488293631   0.2289308258971999
LJ  -0.47815558043067674   0.083091688136021025   0.09779420885535417
LJ  -0.23669913670516732   -0.074626021408177784   0.40054982728207
LJ  -0.26160216978751771   0.33212172908243565   0.2814500588755201
LJ  -0.14091102524178445   0.36457159854982724   -0.30431214590786715
LJ  -0.062157363687780409   -0.13459162242981493   0.062690903046593305
LJ  0.33161152011753964   0.013118906428050152   0.12513297873795989
LJ  0.15890589595574622   0.33133020981563832   0.31631136646391272
LJ  0.354684311330205   -0.13405480062709377   -0.12317849208485673
LJ  0.16032373814336193   0.3473745777637185   -0.41505609435649393
LJ  0.23990210643727414   -0.12988765602736177   0.48545109724676105
LJ  0.10800701423675754   0.43151659219379518   0.3928198962729525
LJ  -0.392554143167405   0.084300414722108655   -0.16517101494083167
LJ  0.29646605515710495   0.20545345764824463   0.033395809255471844
LJ  0.11280265118636698   -0.19381679764426138   0.24484293756367384
LJ  -0.4501767011642665   -0.090113868980622999   -0.24289114310483409
LJ  -0.14023299670431438   -0.18711910961390801   -0.078611209767660173
LJ  0.10673224711753762   0.11394717878674779   0.14428202457953868
LJ  -0.47960356963185052   0.19491871856333554   -0.17486842663258617
LJ  0.072099112968131596   -0.43961688928600084   -0.071268621346313649
LJ  0.20134414429808747   0.17443382982129266   0.33030629940571526
LJ  -0.21186462546026363   -0.27062592696208998   0.19710675860899896
LJ  0.41284764914276395   -0.31321096379892222   0.22694130875994997
LJ  0.24644819787207059   0.121507409307419   -0.36339809300386222
LJ  -0.14669926207786965   0.041713666577164715   0.33322477189613553
LJ  -0.36974966230027412   -0.24149176096791225   -0.10812628863008422
LJ  -0.38775133385872157   -0.11519871999652603   0.015398927102427681
LJ  0.11510247955386541   0.36791760443902249   0.45618712691912966
LJ  -0.43426797124582711   -0.35538196232889518   0.36754691573792181
LJ  -0.44649318518971204   0.29666679291971032   -0.13513918512171699
LJ  0.13189036614207722   -0.37609638171596932   -0.077983134915290298
LJ  -0.058476910996302957   0.235473756453462   -0.37047177909135681
LJ  -0.15280078217692575   0.14279048653135959   -0.0066068967579795464
LJ  0.12089190467026331   0.47296174936513635   -0.10489818904749487
LJ  -0.19664596117461886   0.14886857460896852   0.33218527095284184
LJ  -0.41790014915552753   -0.071424495327577775   -0.39446399949084421
LJ  -0.19352248194377933   0.22971557665926082   0.40518359135976156
LJ  0.46783100518609738   -0.24943869006343947   0.2336225436308427
LJ  -0.280428636439157   -0.058089959269946999   -0.056442010199374844
LJ  -0.018260692423997922   0.29718663536473272   0.17239595298353702
LJ  -0.45777637590642956   0.036148718869099254   -0.29597152610819277
