108
#Comment!
LJ  -0.30539676647530678   0.30054582737156593   0.42562223137465671
LJ  0.25924831936126391   -0.19004927520811762   -0.49407180186125849
LJ  -0.28146845184473263   -0.23618910409361904   0.25447668741565627
LJ  -0.25564536417290695   -0.44101046354771128   -0.27118849021630098
LJ  -0.39461008264206077   -0.49817160163535718   0.34709813567329079
LJ  -0.24257462473192665   0.12303821692366039   0.31108008927058878
LJ  -0.27218228851994752   -0.28099981277664426   -0.3926160083717829
LJ  0.46208273980180425   0.47718294348079104   -0.13332174121500334
LJ  -0.32690914997645487   -0.4531958671004227   0.36588949174593333
LJ  -0.49156593852223923   0.001359313799601172   -0.24316766948532828
LJ  0.28153966877621689   -0.31198336109905117   -0.17226910982197913
LJ  -0.33538529067281025   -0.26289246777865971   0.010851388197487698
LJ  -0.22507429696157652   -0.10160270142397443   0.093654921432315977
LJ  -0.082445120787851572   0.19814222264856918   0.27571607983219604
LJ  0.45501542817165547   -0.18891813176607108   0.37241360915573413
LJ  0.33120670347458664   -0.22660444226699086   0.043616114910513613
LJ  -0.17575443488781414   0.034950197709035319   0.37403117597224
LJ  0.091545227376516949   -0.010232214064923376   -0.45735912713998733
LJ  -0.38050548576594823   0.36074962115696291   -0.0015099106618261249
LJ  -0.16349356930496192   0.26885155079863382   -0.27938642526973728
LJ  -0.09156324276686531   0.37476443155033817   0.2374855932487738
LJ  -0.20724015356402314   0.19323723474533563   0.35993431791968244
LJ  -0.44877451650800509   -0.10394250391505878   0.0074526194388616568
LJ  -0.25665072548382473   0.06659220345569046   0.38594488156979245
LJ  0.037478826805989129   0.284315194985716   0.12397686254585503
LJ  -0.2890225898870345   -0.47973727308404696   -0.03693923773503692
LJ  -0.25188653491985963   0.29324059648400935   -0.0027568989059190475
LJ  0.095610260203665587   -0.32733446044821701   -0.041829142654424459
LJ  -0.12298261658980109   0.16601035150937932   0.42382395713793475
LJ  -0.45109460809925517   0.13243854981605349   0.21039512296852722
LJ  0.081107353173207733   0.4069329925285613   -0.11324629355676316
LJ  -0.32446977822945433   -0.41241647884640403   0.076002732686779512
LJ  -0.13691313484885578   0.24753417756409435   -0.4872385356416305
LJ  -0.30650052377088244   0.2958502737397517   -0.062894249648121556
LJ  0.067857264498350903   -0.42686539598097201   0.20575188611690501
LJ  -0.27293159538871553   0.22418880794978183   -0.097532030848089896
LJ  -0.2259423574073573   -0.48035811802300321   -0.095066428016028368
LJ  0.43387599100003632   -0.47352161707424656   0.097120941057305218
LJ  -0.32542813369896073   -0.22653732591658171   0.17783949413558398
LJ  0.47480435150787514   0.38257063610361486   -0.11061557864373761
LJ  0.003526590690845518   0.44038256355584138   0.36903184640777098
LJ  -0.16926017456323053   -0.33859968864766032   -0.0054955266183069826
LJ  -0.091706722687895315   -0.080903420806078333   -0.10949558773859083
LJ  -0.48358708295114156   0.35846157334631962   0.18174908770468848
LJ  -0.14158608533538283   0.36076404371987758   -0.13323232078480221
LJ  -0.34657828251396011   -0.32597943541899826   0.062228855633311514
LJ  -0.090002512680316352   -0.47367167375020475   -0.24166794602000424
LJ  -0.008994939153003775   0.38528312616144561   -0.1789425174846393
LJ  0.33003504921193028   -0.21056987849003386   -0.085164194520958122
LJ  -0.23070654245786515   -0.084229510313743067   0.23807589533471443
LJ  -0.093627638268952484   -0.30412257806901288   -0.05027824134101621
LJ  -0.38608224260429896   -0.21125711811810052   0.080443413810812311
LJ  -0.32531296020645173   -0.43146208981779971   -0.099137434802812646
LJ  0.44857015121376409   0.24582006517164376   0.064115455770054258
LJ  -0.35881963359540436   -0.44074479615109224   -0.35398645044800203
LJ  -0.31713102459951886   -0.17277332176735938   -0.066472702254202362
LJ  0.37891388850904822   -0.27001215371740406   0.1510646303651115
LJ  -0.14309288486226068   0.32637167769450937   -0.22168793360716529
LJ  0.19509560610839821   0.22497354292757957   0.45169650429564695
LJ  0.21102776099097548   0.11379152567244687   -0.1715369809685186
LJ  0.33397646007393966   -0.24327487257437971   0.28302381516017178
LJ  -0.47380524572427402   0.26171019961298447   -0.33077282313256301
LJ  0.18418929027654565   0.17316937333283319   0.0045543609890817752
LJ  -0.39016574420121575   -0.15317519437396673   -0.0091785091178102941
LJ  -0.035639655712404301   0.24988718940557031   0.22299149380377231
LJ  0.29558780106949706   -0.35622703417325341   -0.018723687805249249
LJ  0.21758536110353471   0.40751285378358132   -0.47394684261149594
LJ  0.15735355749717436   -0.27886917080573331   0.024753708166584874
LJ  0.17025272884297385   0.40058197475157725   0.45382879212510596
LJ  -0.21083125951756537   0.30472211035137614   -0.097843954080388373
LJ  0.044077690097015385   0.45690965873712119   -0.16741610682501507
LJ  -0.25721547414154822   0.36686886943175184   -0.042674609822407318
LJ  0.16221271319311342   -0.18607568395127744   -0.04310527852012707
LJ  0.21916180553815015   -0.27052434808034348   -0.12268458054158814
LJ  -0.015155191027432935   0.21639087108266716   -0.25813762755786718
LJ  -0.35975485422315517   -0.028338590669138609   -0.16261192321528034
LJ  -0.065456057107643351   0.45077026776368062   -0.19728800484507253
LJ  0.25848898164143991   -0.086165845105366859   0.059182018854640035
LJ  0.27989334343571021   0.15801038351602997   -0.14544090323867967
LJ  -0.17931322990216086   -0.40377349178526006   -0.35417954765694393
LJ  0.041994810713168136   -0.2208414498010271   0.43481137519244445
LJ  0.13864050841136177   -0.37019789773488099   -0.30358775823253981
LJ  0.27440079633275655   -0.041249056591984905   0.45823118877360075
LJ  -0.019393985407204245   -0.39215856735546467   0.1768786897770154
LJ  0.4406410343311063   -0.29668918446020592   -0.33223718674172859
LJ  0.071791244985875385   0.29665606427516633   0.25476141053632961
LJ  0.10554420003507815   0.37441873150995247   0.29699143399279299
LJ  -0.061374180403661938   0.045568002657788396   -0.36005500376327243
LJ  0.11968090502135104   -0.058138528704359725   0.46421784215666917
LJ  -0.20221768612119975   0.08205595436039273   0.20775228197248463
LJ  0.036515345095057196   -0.32500576990331009   0.40766604248503219
LJ  0.33044005745098698   0.053666119849735641   0.20694449650753419
LJ  0.19090169924195741   0.29764856587724997   -0.089594130879604314
LJ  0.12759786291478603   0.095211131485640269   -0.35023208940255923
LJ  -0.39008397096425351   0.29872016537058438   0.21157437605882443
LJ  -0.48939023234318491   0.037907568434677949   0.025327281836114914
LJ  0.43128564519991286   -0.31152579159891636   0.18346442734020163
LJ  0.29372625015458698   -0.12879971019834674   -0.1625675951064994
LJ  -0.48155636931609963   0.38738170008238842   0.25723525776429018
LJ  -0.47510870349493245   -0.28079830649362575   0.10581536570530638
LJ  -0.058406077717303218   -0.48700080712539318   -0.12649193783145718
LJ  0.2047022098987531   0.34226426522939812   0.0040906449062147942
LJ  -0.41430080735273284   -0.032946275081201175   0.26614525126532734
LJ  0.27723547333013066   0.19598099441391004   -0.043012754598855084
LJ  0.043693857307191032   0.17959080958907972   -0.086304632683500526
LJ  -0.42814226120572435   0.064845906332234263   -0.2351063458182269
LJ  0.24592719841707   0.19476429944494372   -0.23252833738465586
LJ  0.0021710763206611709   0.24710636445168943   -0.33299689079998768
