108
#Comment!
LJ  0.31364809332964944   0.1784187497805356   0.35521752656402067
LJ  -0.43789039385848333   -0.31433752893991163   0.44882644613451322
LJ  -0.41353991762489672   0.4408158650314663   -0.22239905322928916
LJ  -0.29924895838029419   0.44533382510971381   -0.40904729794002043
LJ  0.025821477740372006   -0.32301155116838148   -0.39920514558711662
LJ  0.27838304039615769   -0.47714096991863697   -0.35056621933794074
LJ  -0.14005097409198478   -0.20885480033371165   -0.20981435910239968
LJ  -0.19479899697327901   -0.23283193603269817   -0.43881536019082557
LJ  -0.10838619010098363   -0.45249181454725096   0.49719008460303049
LJ  0.48916350498901301   0.49000674822357299   -0.40052983722114766
LJ  0.025396695721297921   0.46977407720968173   -0.29792351173304593
LJ  0.39000737939972846   0.08124104386951421   -0.37544423073427191
LJ  0.40718333123766509   -0.30620138360481908   -0.37346470764137202
LJ  0.33497908138637073   -0.25039382263440663   0.42493414415692243
LJ  -0.33679015923030298   -0.092764091360152137   -0.48725803257547656
LJ  -0.17201242725276333   -0.052239516405900431   -0.3272406935196896
LJ  0.051879415026033583   -0.088955054873550335   -0.28480926371511067
LJ  -0.082237555339701451   -0.27259086322655923   0.093074210795921125
LJ  0.061752910766084128   0.08520388758516359   0.048609144253394687
LJ  0.16033434527730994   -0.038895761000547202   -0.10314896010217568
LJ  0.25203521679710544   -0.052468721214006087   -0.26959031373687553
LJ  0.16728546776468201   -0.023300717339553544   -0.45934515411772975
LJ  -0.00030541613734273747   0.07403287062242446   -0.45509803522159864
LJ  -0.022806824351197796   -0.14441858211974912   -0.46936583624672812
LJ  -0.37161913177700406   0.079401347500397346   0.415301069784136
LJ  -0.2641028722564891   0.18790211560579154   0.23029388844045659
LJ  -0.19764269219627081   0.38713475820876675   -0.21964878725618323
LJ  -0.18679424026373789   -0.41885840295674964   -0.30678111926596185
LJ  -0.3922876396912357   -0.07260224840127967   -0.024846761890136806
LJ  -0.13503136307988645   -0.28869935576322275   0.31202515012566245
LJ  0.44003515387004954   0.30312086032945085   -0.27273898738122049
LJ  -0.20046137463237632   0.13386502271031503   -0.46181272098706461
LJ  -0.06596947138265101   0.30117418173523602   -0.39887403128953991
LJ  0.13084580481707375   0.11157157588597452   -0.29834566580655603
LJ  0.21458673481768706   0.33994394084613444   -0.37369054312493044
LJ  0.41454417729154669   0.022098307671523036   0.36426730753947972
LJ  -0.085586450966867081   -0.43040315361515413   -0.1229406364187234
LJ  -0.2968090935807961   -0.40524023280254434   -0.10200577603996901
LJ  0.43809404405767527   -0.19624038991077292   0.21448263494296033
LJ  0.18578924288680124   -0.49786310690771901   -0.16454211344391736
LJ  0.0064221953197460624   0.31009455768227862   -0.17670955966389476
LJ  0.22185863032693168   -0.28019023359102296   -0.24964429651027328
LJ  -0.047050453349387109   -0.053686992976685478   -0.10213615880959151
LJ  -0.061313874040192028   0.38690129660524891   0.25951190712517008
LJ  0.17200779140974179   -0.47617893056447796   0.11298412385242095
LJ  -0.39113990682949268   -0.35916358328120918   -0.35112590538556449
LJ  0.37322767400372547   -0.44363208068719379   0.072168864011847467
LJ  -0.46407843761577511   -0.30142231037427286   -0.14329273948168803
LJ  0.40274039343162882   -0.43849078746267128   0.38253482500831637
LJ  -0.28344289391074129   -0.15546587878702431   0.32221592598647192
LJ  0.45472811275029712   -0.034518563112411103   -0.18743509431052802
LJ  -0.056550948232599853   0.10446258064780965   -0.24523376896189414
LJ  0.22179455026500469   -0.12132220550106829   0.12305796992727151
LJ  0.1988203489224247   0.26415429172454352   0.088938267991172354
LJ  -0.18251535295689728   0.02512982815317788   0.032475825356953571
LJ  0.26200305070658253   -0.33874173331232615   0.27265659780625062
LJ  0.25522064103998976   -0.29703970221715237   -0.030315003689744508
LJ  0.42704266799467422   -0.10517702696010166   -0.41647770928491257
LJ  0.024110639760873565   -0.1105173265014721   0.065486000809971273
LJ  0.38494964241365176   0.34618908884645921   0.0039404722411698458
LJ  -0.47360932101107689   -0.31473430466363561   0.070299150546991276
LJ  -0.42536506386596867   0.023660936474942017   -0.35216100567995517
LJ  -0.499960439853884   0.4835705909305944   0.23345886556897141
LJ  -0.24838192818417482   0.03050529935287534   -0.16142263977198554
LJ  -0.16194517827385474   0.20351537628800909   -0.087070359762293006
LJ  0.035287545469040019   0.36149425512328054   0.010318777182617695
LJ  -0.22015894791751989   0.37302197017518091   -0.016795440180073524
LJ  -0.062987320967462151   0.15687693525402588   0.18444698155463743
LJ  -0.37686706899004668   0.22878922432577828   -0.16525610168527513
LJ  0.39468235327294948   0.49963272598549807   -0.12430343991764425
LJ  0.25146447172166647   0.29245436069429315   -0.14597189480939032
LJ  0.34180528036012175   0.32713158726005498   0.23063636662301884
LJ  0.42358654231435799   -0.12723353020013589   0.012620810685982793
LJ  -0.29254013289973751   -0.4101544250483678   0.12402252239702312
LJ  -0.38819960983980722   -0.30856544603600261   0.26518994688041342
LJ  -0.39884082500792223   0.48998401568347427   0.42009658954891266
LJ  -0.34704473218636861   0.3568621494203546   0.15441906172511111
LJ  -0.06408149765594838   -0.45952147256938702   0.10124220642361206
LJ  -0.22142170528063532   -0.21862370076094925   -0.030864257101342787
LJ  -0.38668137824542248   0.24564451535702175   -0.39772965073129934
LJ  0.10707396245968598   -0.27571973237265368   0.17351482194061468
LJ  0.18921380096151322   -0.42193379649716595   0.47717592306047096
LJ  0.029920942324182145   -0.43847619345158906   0.29693278462584305
LJ  0.29025072825854492   0.3893664679904254   0.42615394971236309
LJ  0.3183720784335804   0.11327584096067439   -0.044768408995933179
LJ  0.48141783777033498   0.091819016546715648   0.11734075534526403
LJ  -0.40385548973530683   -0.015072574457611719   0.22941111621583626
LJ  -0.29427076751832754   -0.17437215728131544   0.13725208794332955
LJ  -0.3352487748256846   -0.15017216029679664   -0.22731833008149779
LJ  0.060235684994857444   -0.30684939232400338   -0.10079616328984613
LJ  -0.19008227963694213   0.0034585905711913834   0.24015374433655953
LJ  0.088361159702960282   -0.24547595849925624   0.37111675124922389
LJ  0.23103314793141114   -0.071002639841211926   0.34875941352228756
LJ  0.06145884331007407   0.045365553069467199   0.3020758943329398
LJ  -0.13205530238618893   -0.035759873868438055   0.43224878566368868
LJ  0.22240387247242815   -0.21403145119115136   -0.42278377233978892
LJ  -0.43767009913566102   0.48125436925272885   0.01191590694713728
LJ  -0.49611107513135239   0.28662755946103541   0.38307893510356661
LJ  0.24066961764619174   0.075306404868719423   0.17001495739231626
LJ  -0.31642717477189497   0.19834040960106572   0.027718459152062908
LJ  -0.049460914458292954   0.18661019785728392   0.40156351988913364
LJ  0.10308863928613557   0.28140228604757411   0.29697375734831466
LJ  -0.24537560983448659   -0.49588794551519921   0.30512417978603912
LJ  -0.27408646149140187   0.30079558951508362   0.40905294050591329
LJ  -0.016305889615127103   -0.12306158660952761   0.25447725015004063
LJ  0.15099233236020568   0.21100006418534764   0.49444475214534978
LJ  0.051208126159126288   0.3950077277296023   0.46326445269392658
LJ  0.39028057568626867   0.26225486030737705   -0.45780395037383892
