108
#Comment!
LJ  0.31362240270620295   0.17851628299517028   0.35546744950333903
LJ  -0.43754560008197391   -0.31442258802059969   0.44884441834327748
LJ  -0.41370530203325229   0.44100347363092274   -0.22240928820717518
LJ  -0.29913362722738107   0.44528995383175091   -0.40900498164474064
LJ  0.025882085321543735   -0.32324715665470577   -0.39889316263059899
LJ  0.2781280952059722   -0.4770470245186878   -0.35037034054143756
LJ  -0.1400253859668881   -0.20895987907062413   -0.20948075349450759
LJ  -0.19476017255645736   -0.23252955756203991   -0.4386657477526551
LJ  -0.10871143816302234   -0.45283776932433001   0.49721386618861291
LJ  0.48905109393733304   0.48966634260155889   -0.40046810048096926
LJ  0.025480970853627386   0.4700316160857464   -0.29795126468979011
LJ  0.3895144197054099   0.08102019863640253   -0.37582580091218648
LJ  0.40708348783499881   -0.30561363194912033   -0.37369091025638629
LJ  0.33502571320362556   -0.25012850461832398   0.42496964156154055
LJ  -0.33671969801465013   -0.093056456510949112   -0.48691010924133976
LJ  -0.17185454461161676   -0.052249955515139425   -0.32738167976765237
LJ  0.051887003597560766   -0.089037715507576679   -0.28490972628277877
LJ  -0.082555621920222783   -0.27228285939734476   0.093187088944187618
LJ  0.061553683945808617   0.085254307179750771   0.048325932885041514
LJ  0.16037149484468188   -0.039010646704255567   -0.10305365240909664
LJ  0.25199733501555166   -0.052858115798606595   -0.26970966103888028
LJ  0.16718807915368414   -0.022967312902273305   -0.45943534336428188
LJ  -0.0005736772958229682   0.074369499581915036   -0.45476821572136189
LJ  -0.022442189503906255   -0.14431957745117638   -0.46919125552552637
LJ  -0.37145057606678777   0.079535364145196893   0.41523986510925887
LJ  -0.26386941004102121   0.18763342543489811   0.23012296278253497
LJ  -0.19776488365390205   0.38722679735966059   -0.21952115782691803
LJ  -0.18649970865073123   -0.41870049368495271   -0.30683262044464132
LJ  -0.3920728612861582   -0.072729899134715975   -0.024780311441420327
LJ  -0.13482815475354823   -0.28845691687233427   0.31196677084288615
LJ  0.4399183083678031   0.3036366429545152   -0.27310976218512806
LJ  -0.20046887485990983   0.13385262333735701   -0.46224947886941553
LJ  -0.066080290595884453   0.30131674397363811   -0.39865322069213927
LJ  0.13079212760682821   0.11155986897196027   -0.29813956152831977
LJ  0.21456553704972017   0.33947019983739529   -0.37369638576550118
LJ  0.41444682131425831   0.022329813241901812   0.36433763078392695
LJ  -0.085666284546154325   -0.43037620274665334   -0.12307925063737023
LJ  -0.29671393414230213   -0.40488504386517621   -0.10216301941927831
LJ  0.43784183654779973   -0.19593909330967871   0.21436487429002107
LJ  0.18581196988780696   -0.49771589718920545   -0.16470471018490784
LJ  0.006450250328944241   0.31012605347811972   -0.17673603789057471
LJ  0.22148982326260511   -0.28008401805843924   -0.249492003744549
LJ  -0.047059622828551216   -0.053616067292957183   -0.10239558419543107
LJ  -0.061603756355863348   0.38698755052420442   0.25988102350335135
LJ  0.17189770631160298   -0.47643618903261159   0.11308307464895812
LJ  -0.39115032037557801   -0.35898377823153804   -0.35111850199834482
LJ  0.37360317941492943   -0.44345179851237132   0.072438163784634163
LJ  -0.46382407317741359   -0.30150077408650477   -0.14323016061728319
LJ  0.40279896399772835   -0.43810245119649821   0.38242502641443277
LJ  -0.28333305408374682   -0.15561601812823719   0.32207335971678375
LJ  0.45470583229617606   -0.034833166473674099   -0.1870966268462706
LJ  -0.056378504366154915   0.1044306747980818   -0.24512395391163605
LJ  0.22194108662773798   -0.12131243684272441   0.12303653872872215
LJ  0.19867036558248047   0.26422492312221418   0.088690654429056132
LJ  -0.18264670806142144   0.024995741822504445   0.03244004436552346
LJ  0.26200887382833676   -0.33873398853371223   0.27247287900173178
LJ  0.25513045668076634   -0.29734635693405642   -0.030776000530449737
LJ  0.42719469866499427   -0.1048861632578694   -0.41650521494364223
LJ  0.024218880368860593   -0.11054656439106282   0.065542126854375049
LJ  0.38472734230662231   0.34603877978600273   0.0043247224703015369
LJ  -0.47380442471375928   -0.31520604851070189   0.070355628885264504
LJ  -0.42522743681466957   0.023429879669629096   -0.35251597211727337
LJ  0.49992725048885428   0.48354692869938704   0.23343115505382972
LJ  -0.24879440285953616   0.030410639029017732   -0.16174874200806211
LJ  -0.16185022273535607   0.20337460544120364   -0.08690872630654696
LJ  0.035734356438204454   0.36137373986405069   0.010104437412074882
LJ  -0.22026157927324685   0.37268924526840386   -0.016759621231083519
LJ  -0.062910043166311935   0.15686023565158405   0.18430898267360721
LJ  -0.37707339924544286   0.22865011771893945   -0.16533379508730675
LJ  0.39499201043608595   0.4996895639558751   -0.12444405016741676
LJ  0.2513907817672848   0.29236955257171848   -0.14611514351551114
LJ  0.34186194151227728   0.3270880127425963   0.23027996445887686
LJ  0.42348562027803149   -0.12733149075916578   0.012578006977760717
LJ  -0.29244093538608951   -0.40990613972329787   0.12418423880978831
LJ  -0.38800093206716074   -0.30841021503651583   0.26508840860653893
LJ  -0.39841040556967972   0.48999103308725855   0.42002470730828212
LJ  -0.34690243358846101   0.35688581507179512   0.15446414428373648
LJ  -0.064114655581716154   -0.45962222527273328   0.10135842204427213
LJ  -0.22147793078616038   -0.21846297144915808   -0.03095730319355039
LJ  -0.38682072349939339   0.24572694935429315   -0.39781127971033442
LJ  0.1070430367678912   -0.27589191120737028   0.17396321655270605
LJ  0.18927484483597823   -0.42247527324566836   0.47706321569774057
LJ  0.030050978808006813   -0.43802864793590268   0.29678352109772405
LJ  0.29051850342989161   0.38946572196821577   0.4262158864677858
LJ  0.31843299561479682   0.11306377255832076   -0.044725104410230379
LJ  0.48176995474390139   0.091865488742573026   0.11747377109065105
LJ  -0.40377458484575612   -0.015151810743928724   0.22953969035518973
LJ  -0.29441854015500679   -0.1740741391634722   0.137195259230665
LJ  -0.33505141492422602   -0.15023606137101866   -0.22748834012752037
LJ  0.059959188482701285   -0.30717803898755436   -0.10088433462868081
LJ  -0.1900478064242864   0.0037231017057370755   0.24063257565488999
LJ  0.088605635023193755   -0.24563521036771213   0.37166693903597064
LJ  0.23131424025969877   -0.071201166402130076   0.34868337043478881
LJ  0.060980058014133712   0.045658035541022719   0.30217866691516782
LJ  -0.13219474672029313   -0.035812830411912418   0.43261280289103271
LJ  0.22208353027164987   -0.21430030272702788   -0.42279535939663376
LJ  -0.43757797654663971   0.48116528526821628   0.011662472433535603
LJ  -0.49575180129487034   0.28641872286366316   0.38332512689601156
LJ  0.24071278089412873   0.07537570519657899   0.16988987753510476
LJ  -0.31648782644111145   0.19823642365590519   0.027553034631647939
LJ  -0.049657203425701922   0.18661312781125317   0.40168218491565655
LJ  0.10311623165266581   0.28147912260145797   0.29659210316293333
LJ  -0.24561071404757731   -0.49564205226706209   0.30530700743057465
LJ  -0.27409896386359484   0.30076676257084761   0.40918248069146501
LJ  -0.016326563394360387   -0.12299821510941049   0.25413278332458572
LJ  0.15056424675351562   0.21071992559804703   0.4943778300718405
LJ  0.051642990199805131   0.39482730195548282   0.46336132973105743
LJ  0.39006484013511566   0.26240512646261788   -0.45769002839875556
