108
#Comment!
LJ  0.33255601266331125   -0.059560491569381896   -0.28481809601844982
LJ  -0.25924535446481761   -0.13550884660575224   0.088371499444403381
LJ  0.30195668501827677   0.079964305053104368   -0.39278693837713802
LJ  0.26331595035485222   -0.10486181531648429   0.34957290245875627
LJ  -0.38263254071089181   0.33971444240525556   -0.17472959736293286
LJ  -0.07905054154606779   0.24560423926517083   0.39044178135614527
LJ  0.19793359561739818   0.19062912290868553   0.065922144213382439
LJ  0.14017687027891906   0.43280483000066494   -0.44008582398502599
LJ  -0.41821121422179769   0.48782797709703601   0.23611869024231935
LJ  0.26061262698533277   -0.41809771079484298   -0.43238104343256933
LJ  -0.38565559322070292   -0.31364379238910595   0.42727022729036418
LJ  -0.14694580235623028   0.2811297199551715   0.25715636067825254
LJ  -0.052470021520928549   -0.24235705032705759   -0.3459609387493236
LJ  -0.42995142478074488   -0.17364608983073651   -0.029502745576844566
LJ  0.030846326962370794   0.13230582677106187   -0.10400972750673734
LJ  -0.31836513422924245   0.21957661030967163   0.17852747354293924
LJ  0.26125522977430043   0.33378889138340501   -0.39048061925034366
LJ  0.10696741495400544   -0.20517803987222449   0.22589411702097634
LJ  0.24029422774084902   -0.49063488549114131   0.24691889684832893
LJ  -0.12958342920676019   -0.48712188500586356   -0.21513256796092528
LJ  0.49608408860273062   -0.29311288356204179   0.30867630001817142
LJ  -0.058662747618296249   0.15247255184948691   0.049182568699857154
LJ  -0.3269754073573386   -0.11558432234011976   -0.18179499600556212
LJ  0.14156706194414709   -0.34845375421244529   0.20456625652536911
LJ  -0.29857113979763755   0.38784643964540677   0.46920592297992103
LJ  0.49599772053268343   -0.010580556652518537   -0.12255125779599457
LJ  0.11221544950245201   0.24419957093033159   0.44714995333510277
LJ  0.29813197527542551   -0.43836706214916443   -0.29190607642945937
LJ  -0.24027606790084946   -0.41846879156713068   -0.46842265666866983
LJ  0.29844201128974834   -0.17738070423762684   0.2280926578467968
LJ  -0.49008807602354693   0.39575098228530886   0.49509138231588073
LJ  0.25555395149935256   -0.085688653341077489   -0.25779796124526944
LJ  -0.26622745866513137   -0.1914200697135095   -0.043536695969039141
LJ  0.49503930672358815   -0.3036823177695549   -0.48624002660562621
LJ  -0.076141397153029103   -0.026007029166869183   0.077520575808609618
LJ  -0.024652428459634768   0.11995611395516843   -0.044945808413943591
LJ  0.099691608954105879   0.089977398366866204   -0.30128691847192918
LJ  0.30126301737949335   -0.42758509707577474   0.22422815964278003
LJ  -0.41091192621339634   0.3933947046282934   -0.47871085378503281
LJ  0.13156061525424642   -0.12219183722948371   0.26339427986068992
LJ  -0.12220531262794385   -0.36600061033048564   -0.49384012622427242
LJ  -0.4685745243316341   0.30760202886258597   -0.062023671554964604
LJ  0.30083316910565716   0.23765062580307231   -0.32809624342932786
LJ  0.28950196903881714   0.25298051903505053   -0.47171322130719534
LJ  0.35229232803849164   -0.083280469598015119   0.31467122218172167
LJ  -0.24964553804594478   -0.44297416992750405   -0.38513798374388669
LJ  -0.3353023909372907   0.43416605558107041   0.055304187360159941
LJ  -0.010240062026306181   0.20372598203870862   0.22558719706042638
LJ  -0.10476068412237975   -0.027886284314899722   0.49973569933745215
LJ  -0.22501209359978047   -0.072390027804848905   -0.10105823065744439
LJ  -0.11794732036354573   -0.2853292382811447   -0.33131528584107001
LJ  -0.094941016757061902   -0.28850400663170361   -0.45171577337416025
LJ  0.087564121364358691   0.49744371521610459   -0.047724282506362174
LJ  0.42644713266819106   0.3327932587698354   0.14814132093382595
LJ  0.065732459394101786   0.41546798165812443   0.14958897419640788
LJ  0.22524773465763151   -0.40298409966892634   0.24631999649936839
LJ  0.45089459928673992   0.48199947709253821   0.068570624787108098
LJ  0.43415962726366053   -0.21194799548605445   -0.055810331094621288
LJ  0.060876221405371848   -0.4457917267889519   0.035953504779756958
LJ  -0.31557083895338839   0.31363401071396674   -0.21755687970441229
LJ  0.33475632611844247   -0.18401931267012422   0.014889813890512466
LJ  0.36672172102096884   -0.40075404827408828   0.26209046096913091
LJ  -0.19121125313048307   0.4808303363873408   -0.28745616370763899
LJ  -0.33428422106819206   0.048296475739040272   0.28723552766639565
LJ  -0.28496127672159322   0.30354400262052639   0.36377513303689435
LJ  -0.47585689467147735   -0.077227850830779987   0.12862975494948706
LJ  -0.0051444770462994067   0.28315327513396871   0.13805583065851718
LJ  -0.38263688446114785   -0.37198618748110457   -0.28805624543638836
LJ  -0.39378135771572709   -0.12511002452195275   0.20490104373022883
LJ  -0.45362704886397037   0.45851943159785463   0.30713914130168857
LJ  -0.32695308005039853   0.16465218811720878   -0.39523081942651306
LJ  -0.25373297891488766   0.30008958698283716   -0.028333181117920284
LJ  -0.26277056702053941   -0.4155921865623039   -0.26314077583527729
LJ  -0.37604902965728776   -0.14155433087467306   -0.090429789109211289
LJ  -0.060223658040012583   0.15879026349116518   -0.12453101769232151
LJ  0.40585454593414788   -0.041683511396988608   0.29682209973207935
LJ  0.21511772464362006   -0.17855262857302179   -0.0533818759689932
LJ  -0.17047733718713287   0.45371604668891352   -0.047927506494637701
LJ  0.15578314438699112   -0.29855069157119751   0.1211967501502441
LJ  -0.30469691009701733   0.062417490690259515   -0.3662307928650021
LJ  -0.20497389733212545   0.42368188385188005   -0.34947943102357765
LJ  -0.48399047501922976   0.16467477337002687   -0.39832243048259997
LJ  0.35814972760797636   -0.19664612997633621   0.43944160244315289
LJ  0.015476120185163991   -0.29150047796323042   0.43386185052946175
LJ  -0.2840885805685025   -0.21749666137844731   -0.26609255864661241
LJ  0.097567953462624812   -0.10536549859606993   0.36732910413307274
LJ  -0.078806989228400279   -0.1476645461591691   -0.066374098498497736
LJ  0.087363966445114016   -0.32510854425152863   0.26235364205407369
LJ  -0.13414457754363476   -0.27568339367299982   0.3167093250123369
LJ  0.31417981296181408   0.4060630388246676   0.11194070721243658
LJ  -0.31418454132063467   0.045424244627743346   -0.1170486231502397
LJ  -0.021803395573608598   -0.20311077130771341   0.21693383737386701
LJ  0.19769467648002678   0.10517864374194734   -0.14182530781627523
LJ  -0.098564470993073236   0.49634618399995351   0.48824146757498682
LJ  -0.24846458554816239   0.37102463900196836   0.10150346304840198
LJ  -0.3479599312802848   0.31768643378793127   0.010155785316666742
LJ  -0.3457766484898146   -0.48194253276931531   -0.42053168746460828
LJ  0.27188143852649926   -0.33604841256778489   0.22288652182468618
LJ  0.051345088446423291   -0.16102250426732842   0.28330608152155934
LJ  -0.078823826705210889   0.26330109083705677   0.027643424252540457
LJ  0.11276417538062354   -0.14874967309809881   0.15173617824719263
LJ  -0.44488910219244693   0.3329786398921995   -0.27861337714477824
LJ  0.008962783056540238   0.2237066420526875   -0.094763014564484938
LJ  0.012741570400120847   0.31167685263733946   0.0088346417505055386
LJ  -0.15507811775857008   -0.38581013497947636   -0.28475845476411266
LJ  -0.16045302782361781   0.1257111779442292   -0.23031119018280713
LJ  0.38773158056988444   -0.44673712687867867   -0.19567269813248495
LJ  -0.33187683678625524   0.36826877214710979   0.17679635173017691
