108
#Comment!
LJ  -0.16659315594123975   -0.47952501943374121   0.06656116812779507
LJ  0.32133039622915971   -0.077611142659930479   -0.26745791472037217
LJ  0.13461676833838684   -0.20935556858845791   0.37451537937886603
LJ  -0.31159349066315578   -0.117093317311509   -0.17787236032720763
LJ  -0.45047771470441722   0.30775987673083743   0.0033140080418486519
LJ  -0.21161616791407159   -0.23497426301099875   0.43414678166051957
LJ  0.14972165346724403   0.28637182359576674   -0.15567548297629247
LJ  -0.32786587000376588   0.037777344936967223   0.4777680012373921
LJ  -0.16960100641057479   0.18807220641968928   -0.084831749559199088
LJ  0.10041370515089895   -0.033034410574357999   -0.26146633095414457
LJ  0.4206421528865828   0.27652523576284566   0.27226189979098331
LJ  0.056056345616447484   0.14019859693681427   0.46897771312102882
LJ  -0.048932601829533476   -0.45504249215399595   -0.29965808385561876
LJ  -0.31768130032767233   -0.41448357683175607   0.43119965506538899
LJ  0.068135866761376077   0.38497513341017775   -0.32748813823886719
LJ  0.11937206395405725   -0.090427895405291711   -0.058662653628806953
LJ  0.1853528481001521   0.14021991425981969   -0.33004013120439274
LJ  -0.14357936491959641   0.20481671753988304   0.1850949128588579
LJ  -0.059224444608879503   -0.14995270157330592   -0.32642329733150871
LJ  -0.062072065717801994   0.37747039511881331   -0.14690831704602461
LJ  0.0093986269900056714   0.20541616068910531   0.034656055796630031
LJ  0.49863997965809037   -0.069927241726399372   -0.089949487480842652
LJ  -0.14890047054049374   -0.25414866931973729   -0.18065278434861073
LJ  -0.11568897351735349   -0.044666394984502818   -0.11357827762757262
LJ  -0.48902349156646185   -0.2882055846846478   0.41654060253358915
LJ  -0.033502372401280539   0.16410666887332373   -0.24903795610824978
LJ  -0.49629394023508322   -0.32769289012944697   -0.058234866669694262
LJ  0.40990700424501575   -0.33592483457444722   0.22963310884122812
LJ  -0.12167874125425485   -0.46146059017673347   0.48019233502213543
LJ  0.015570969133724659   -0.41013577297139669   0.14477801584433969
LJ  -0.37436087173130111   -0.31953733882119173   0.22774726690685318
LJ  -0.16134502087774785   0.35384871428355663   -0.42411016318458844
LJ  0.35039023165738375   0.21182055301161865   -0.26748522102094896
LJ  0.32329408138298488   0.46986596465844527   -0.31714942200684343
LJ  -0.31204250127007299   0.3860316322943726   0.40205488304325881
LJ  -0.49906752101898272   0.48775217411026905   0.31982979893937347
LJ  0.30677300848664329   0.12558705742767748   0.18787992014292873
LJ  -0.47344985965001446   -0.15473124909769823   -0.29248951719199506
LJ  0.29465880435536068   -0.34002404366775385   -0.17039457397447286
LJ  -0.34492875912560966   -0.33496246520866552   -0.20704353120072289
LJ  -0.25954016408348157   0.34819517155457075   0.00061489178733995051
LJ  -0.1885895605473385   -0.3237268055158678   -0.38766416687491934
LJ  0.39907345680668771   -0.29609991855235845   -0.39304875307224207
LJ  0.13255151975235177   -0.48410184915527071   0.30342020300851569
LJ  0.038224063726238773   0.36816999481577262   0.42292347707484218
LJ  0.41587794599496059   0.059630407839439244   0.36441361764833574
LJ  0.21472233995528817   0.47638654502639471   0.10322138831954686
LJ  -0.38849636053494702   0.45846684583633951   -0.11530826965619695
LJ  -0.20221122487609267   -0.48281074632246873   -0.16023666266321632
LJ  -0.27026271253142981   0.085953575348318031   -0.24181001830176066
LJ  -0.34197090374908723   0.092918515918762448   0.01617355778006745
LJ  0.068094191458655307   -0.26726944745892683   -0.20332163481208657
LJ  -0.073632913300608796   -0.1930702735061397   0.021398413138370681
LJ  0.036003137101809086   0.22121025438712918   0.26636685196778487
LJ  0.014236862646144757   -0.31184556606144898   -0.48343173557723074
LJ  0.33387129205614857   -0.074612419778437661   0.04764546374636211
LJ  -0.3366944458180724   0.23525128537205553   -0.38221367501495668
LJ  -0.28625406744895393   0.4859676452782562   -0.34736142814362098
LJ  -0.12923852926707136   0.089656266197333481   -0.41602547898122094
LJ  -0.074570509731162124   -0.070446713821511228   0.44646805863323813
LJ  0.073059490344415029   0.0017600704020099673   0.31344632442891995
LJ  -0.094391515988507715   -0.17868517672457268   0.22610254568937638
LJ  0.12104581373904963   -0.47637840336013287   -0.16598627595417731
LJ  -0.28321726596392061   0.3279411684293328   -0.2039697277837299
LJ  -0.18693649509911983   -0.36722894877222356   0.27258477935166459
LJ  -0.10549295073474323   0.40660304870923725   0.26106599642661016
LJ  -0.2676119364465423   -0.28050890058616229   0.0054968631786107957
LJ  0.04741875131072832   0.38451738338882885   0.057807458453830882
LJ  0.12377438911829543   -0.14857949407411436   0.18076065584894099
LJ  -0.26192605668548602   -0.064547870455812409   0.11055357936954217
LJ  -0.039697179142497714   -0.40170404896555179   -0.076840559630930783
LJ  -0.36301401779704473   0.19920674854602796   0.2947838304169631
LJ  -0.45590705293512163   0.18638715931398608   -0.14081631927443483
LJ  0.2382043242237484   0.30368419642572536   -0.43254716833199613
LJ  0.23047919304449291   0.084847370287092064   -0.099246783789435938
LJ  -0.31216432866860228   -0.12557233127277803   -0.39935145121472543
LJ  -0.064204493477827237   0.030486831419548308   0.091584952023145788
LJ  0.21595152551556637   0.31619433692313997   0.24569249284910472
LJ  0.32072466450385101   -0.30874942959923762   0.031030214787318669
LJ  0.40336560299739033   0.45926252708338422   0.11826853377819178
LJ  -0.39134899481230473   -0.45220466934201875   0.072617825834472557
LJ  0.48948846873118262   -0.42280089606650767   -0.2666924998788609
LJ  -0.49216209267489025   -0.4804504233947241   -0.48137483109574519
LJ  0.36363271388322477   0.33068025600933681   -0.10432406034971468
LJ  0.15407617131030624   0.049520702482662507   0.083958112386316425
LJ  -0.46739765249955256   0.0036365076954264887   0.18404558135897137
LJ  -0.39774281054965888   -0.32874255001909158   -0.39871033600608519
LJ  0.41067354390158078   0.14687244136434391   -0.0010051122572360964
LJ  0.3214582802644686   -0.1210147666789763   0.24879725526692864
LJ  0.31105477814636606   0.4615522473198671   0.38897054532522884
LJ  0.31225338846930561   -0.13664177751455836   0.48530877385240784
LJ  0.16634521179980227   -0.4857397741028508   -0.47997302768109695
LJ  0.1879771667863786   -0.23252118570325356   -0.35810935333746247
LJ  0.11401497623394452   -0.29486038855190144   0.014384537065758519
LJ  -0.18706604664106963   0.20505214018427603   0.41335858092118544
LJ  0.34067268393826544   0.054098181190873139   -0.43647779907533291
LJ  -0.39958215302242667   -0.11076064562886846   0.34758018049944606
LJ  -0.37322650892351555   0.38038499495940375   0.19128196603604947
LJ  0.2578257002660489   0.17048619082448244   0.40152552933342978
LJ  -0.22531048835387768   0.017641705588015952   0.2986085375880092
LJ  0.29335204926482417   -0.33859711343102833   0.41847129736515759
LJ  0.43541231014867543   0.32835607493551944   0.48365439331146792
LJ  -0.49495899253369818   -0.079358611150308428   -0.48431833354559328
LJ  -0.46375149626984918   0.046029443037950715   -0.28692647709110752
LJ  0.23105369886390528   0.24051659441276835   0.031312167981244796
LJ  0.49522714432495157   0.34828600650781755   -0.30938365530369732
LJ  0.15347042684748782   -0.032671731168312117   -0.46774533650401773
LJ  0.48914984382053578   -0.1792066653343016   0.10798025310465946
