108
#Comment!
LJ  -0.16665738096240121   -0.47956103948127893   0.066330112871533203
LJ  0.32124571597521195   -0.077619392230747472   -0.26748468171397533
LJ  0.13470294438927397   -0.2094210411166785   0.37446752933257749
LJ  -0.3116781938997969   -0.1170733891825136   -0.17769718932417156
LJ  -0.45052881726163629   0.30771668402577584   0.0035161923800191277
LJ  -0.21180304054034871   -0.23487691750857992   0.43414771402099361
LJ  0.14979558358865916   0.28635807125143103   -0.15564854127659822
LJ  -0.32769172477076564   0.037566219715560241   0.47777195148083768
LJ  -0.1695795768833725   0.18793891726796805   -0.084973243495704912
LJ  0.10048205289168452   -0.032865358195453026   -0.2614369557593208
LJ  0.4204408234357227   0.27659254542474865   0.27224076705059319
LJ  0.056063107434746788   0.14030804667167832   0.46915698745914658
LJ  -0.049136883503209772   -0.4550310912726202   -0.29953694134810516
LJ  -0.31753010912402241   -0.41463929529184534   0.43129304276225305
LJ  0.068037474736863959   0.38502638529929561   -0.3274701081358074
LJ  0.11930716790396134   -0.09037170080402307   -0.058825602034241198
LJ  0.18553273781243138   0.14027764032092685   -0.32987446364651085
LJ  -0.14365731942594989   0.2045905001187267   0.18498603214689918
LJ  -0.059252684053132693   -0.14992692980828154   -0.32634676755149333
LJ  -0.062286640399155567   0.37757685648171563   -0.14670807865960031
LJ  0.0094403878304268034   0.20538133965236863   0.034640535655623243
LJ  0.49863132506264718   -0.069958139998413757   -0.090116960603672192
LJ  -0.14908066560457928   -0.25432480448331862   -0.18076739315032095
LJ  -0.11559691056558449   -0.044656955168422156   -0.11350153113881555
LJ  -0.4891389457325564   -0.28826412228515286   0.41661128470339759
LJ  -0.033602710928389186   0.16425145643308633   -0.24929129980328885
LJ  -0.4965550635823569   -0.32759061917458654   -0.058251908907566603
LJ  0.40994234137135793   -0.33597832265510802   0.22957099737461586
LJ  -0.12188173997895842   -0.46147060011752239   0.48012615240696699
LJ  0.015724209575677356   -0.41002910508761514   0.14477624385220708
LJ  -0.37449142126128437   -0.31952006586882126   0.22757411727824009
LJ  -0.16104373850167836   0.35390815133302739   -0.42404251750306421
LJ  0.35057345064882428   0.21188319441761344   -0.26729298151666131
LJ  0.32319039147156092   0.46988233452466177   -0.31709199390851545
LJ  -0.31229006164068851   0.38589687113181742   0.40218170408434417
LJ  -0.49917207869190877   0.48764233631160159   0.31964316841663454
LJ  0.30662572645355507   0.12577363770985545   0.1879083845538671
LJ  -0.47347726302500009   -0.15472275574555197   -0.29221815900311787
LJ  0.29475980713267452   -0.34012944186263938   -0.1704691177766737
LJ  -0.34495434497025718   -0.3348487685337726   -0.20715832796674208
LJ  -0.25961518876720729   0.34825399361659104   0.00072333228576375709
LJ  -0.18865754599837864   -0.32379751990409439   -0.38770434673925835
LJ  0.3993035253914467   -0.29597878765998981   -0.39291401861343306
LJ  0.13272616357303241   -0.48392737762089633   0.30339472278615109
LJ  0.038457823585517491   0.36802940763601794   0.42270912592471804
LJ  0.41596830916206934   0.059761415361815839   0.36436833096542059
LJ  0.2149188716463587   0.47636709057115778   0.10313933412998144
LJ  -0.38841755302352626   0.45847363374324418   -0.114974836694682
LJ  -0.20214567556851989   -0.48289210580278857   -0.16007565316708922
LJ  -0.27002965603350049   0.085965237289402308   -0.24171124272862138
LJ  -0.34206919898996241   0.093061351638487125   0.016123456154156453
LJ  0.067889365259864526   -0.26758147337856719   -0.20307279207173132
LJ  -0.073568917686396701   -0.19342793123656563   0.021659590442569831
LJ  0.036017651215216551   0.22119860825199464   0.26653510869752922
LJ  0.01440920216943011   -0.31186402116404993   -0.48332355952714445
LJ  0.33371248854144975   -0.074635039972406503   0.047643389939679391
LJ  -0.33679683505282387   0.23532079565975905   -0.382214825033099
LJ  -0.28616092027372586   0.48572786973074922   -0.34731350661813587
LJ  -0.12918254745885246   0.089392577546996449   -0.41589882671553041
LJ  -0.074788491261239862   -0.070328370699165352   0.4464096090163136
LJ  0.073044262622312686   0.0018854922084607347   0.31346635893448677
LJ  -0.094577731943255625   -0.17868434226341981   0.22599322571731847
LJ  0.12107084247381483   -0.47650388959498302   -0.16620318689412356
LJ  -0.28335907568698093   0.32782416681872195   -0.20385140816242581
LJ  -0.18675047302849435   -0.36708805725851651   0.27267220705394218
LJ  -0.10563187623977195   0.40670339591606763   0.26100994133069405
LJ  -0.26760290180275531   -0.28045584861293305   0.0054266718560363886
LJ  0.047461811387258364   0.38448203708629058   0.057670553417228702
LJ  0.12395740080778322   -0.14844230461694485   0.18094197781687257
LJ  -0.26186624833455735   -0.064665346121750095   0.11026089984794682
LJ  -0.039757568202118496   -0.40150957314692609   -0.076939751135972609
LJ  -0.36287534085161066   0.19940801884953524   0.2948074368375026
LJ  -0.4558502830470394   0.18658151192099456   -0.14104267377959878
LJ  0.23810180257096686   0.30373883676008601   -0.43270433895914745
LJ  0.23048790554624432   0.084997289922350228   -0.099516903674546756
LJ  -0.31204799873586719   -0.12567739947368947   -0.39927640033400497
LJ  -0.064168282757295539   0.030635488463826993   0.091395084511289221
LJ  0.215950527405119   0.31611296026364244   0.2455155374221214
LJ  0.3206221518890412   -0.3086265626539112   0.031076093993144416
LJ  0.40326874704328891   0.45929285653637214   0.118263301587888
LJ  -0.39129868337456636   -0.45213402618431148   0.072902610594718906
LJ  0.4895864260899967   -0.42299285624223693   -0.26655458116502445
LJ  -0.49209623927616031   -0.48052216359573258   -0.48173581545923005
LJ  0.36371183864151085   0.33072867724000077   -0.1043378719529902
LJ  0.15428747662814757   0.049040635047150921   0.083765439391672095
LJ  -0.46746113699568143   0.0037132390234518591   0.18410506492234413
LJ  -0.39749161148603429   -0.3289053281719958   -0.39849872624622429
LJ  0.41071539593383244   0.14705294999623081   -0.00079494814792611544
LJ  0.32143245586880548   -0.12093877188142489   0.24889968421251873
LJ  0.31111142574039957   0.46143965711974755   0.38889406483485656
LJ  0.31223738589756839   -0.13672021547019558   0.48537065243364164
LJ  0.16634868143320999   -0.48577712487199687   -0.48031555402734066
LJ  0.18771940533010964   -0.23256765115642922   -0.35817457544737635
LJ  0.1140379162303166   -0.29452854082890145   0.014199820577852669
LJ  -0.18697891841711856   0.20517018254823424   0.41327815827140374
LJ  0.3407463426813786   0.054039779110880155   -0.43640413123974003
LJ  -0.39950875378048711   -0.1109861683247635   0.34760282016378585
LJ  -0.37297383114112936   0.38031928967759232   0.19128439498041749
LJ  0.25787049352975044   0.1704961001760863   0.40150238192112891
LJ  -0.22522361060319521   0.017659562678851357   0.29835975357319905
LJ  0.29337107887428848   -0.338672837815023   0.41867609581686815
LJ  0.43545157076732183   0.32835830905275959   0.48367708813215143
LJ  -0.49514089971219583   -0.079562611314712872   -0.48432559235561984
LJ  -0.46383639178194686   0.046335019662929029   -0.2869046615632378
LJ  0.23103737308724354   0.24057509730359486   0.031577673697657772
LJ  0.49529627045791313   0.34832279592643817   -0.30981968823068146
LJ  0.15330594615408566   -0.032549536317975206   -0.46751889921154843
LJ  0.48888611964080697   -0.17921287911843325   0.10808416952635366
