108
#Comment!
LJ  0.31455932116480911   0.30424375909362467   -0.27913783533638781
LJ  -0.35583635198536001   0.36217187660346795   0.056717382974005387
LJ  -0.39562476301897342   -0.37411932487487504   0.41090067878532954
LJ  -0.49712433517611876   -0.19035259982598213   0.36093772367257598
LJ  0.12097770354116871   0.0043810727420573485   0.11061640982336757
LJ  -0.35973330083630772   0.33084361972893556   -0.41191705288822394
LJ  0.03051573495509799   -0.32925268511239619   0.25907548863659075
LJ  -0.0036871870242663365   0.07728390812486273   0.39108990794934806
LJ  -0.033244652069572431   -0.46700548306477901   0.15898463304792146
LJ  0.47634526692873236   0.33738675085957892   0.15409665126311292
LJ  0.063049798170453183   0.35353934817498567   -0.41433790035042939
LJ  -0.47422133412641415   -0.32951597694794632   0.35376651583822327
LJ  0.12781068486479846   -0.49896701512911679   0.24423515276550117
LJ  -0.18152286596874406   -0.29241441556662867   0.21145372053559947
LJ  -0.034329277651407329   -0.3316946500145041   -0.38455693101622684
LJ  0.23686264858162084   -0.0028930362488894315   -0.34034109088490361
LJ  -0.075857725247216512   0.30816564853551703   -0.40183560501809451
LJ  0.14701653867854581   -0.0086369722975899853   -0.16900885146939149
LJ  0.097123410232920288   0.31497224358821957   0.29761297213647042
LJ  0.28865917637458621   0.0029374634829465716   -0.12247342748376454
LJ  -0.0016092875445863201   0.4568194625986956   0.023747315607115939
LJ  -0.28130134927892753   0.058172761647213467   -0.43511339481156991
LJ  0.11273516849866894   -0.49491670050558362   0.46751239635711744
LJ  -0.0022384837389311293   -0.12504849870583035   0.31348573439404276
LJ  -0.28817918254622621   -0.40412801183988267   -0.048964118116312461
LJ  -0.14231481052223344   -0.19564707113769433   0.19503693528676666
LJ  -0.36079255159475787   0.25504658138962594   -0.14097091006146478
LJ  0.33512360076635334   -0.20718585601175815   0.21923388181336326
LJ  -0.11369539557263945   -0.055430731389216649   0.48209491467102605
LJ  0.45336914139464074   -0.45688466478303336   0.35705746193701587
LJ  -0.43672520134423903   -0.046564565134712591   -0.21786582825839013
LJ  -0.46952810517530447   -0.36488863367356605   -0.17930707150208589
LJ  0.081558174923288609   0.037966239427104843   0.28991431066473028
LJ  -0.16752974570273094   0.12718638104092922   0.12195904787271306
LJ  0.42363024128368959   -0.42540351533647924   -0.066831407154174613
LJ  -0.48254475144969716   -0.49239843703474795   0.42235664730401584
LJ  -0.23400929627956579   -0.25933859675313631   -0.42029358076948625
LJ  -0.3206216442244581   -0.2850856357529345   0.48417105778151015
LJ  0.37588679955243126   0.47395708604909947   0.17945561786250247
LJ  -0.41071015355567364   0.31205504315228683   -0.03559990571854945
LJ  -0.4312827951465093   -0.03215914639717312   0.024350928349757207
LJ  0.42961890148065685   0.12049832618118418   0.10993280429275162
LJ  -0.038016862574091898   -0.34817051904778001   -0.18069361234414286
LJ  -0.45637745682582126   -0.44027323378492184   -0.11123232989677972
LJ  -0.34874423958965683   -0.46719710290548228   -0.46980202816823302
LJ  -0.24011081046403257   0.45653968218534896   0.10928838992857816
LJ  0.2273996146610005   0.18750356012529512   0.15038669782825501
LJ  0.15165807053395336   0.39495903987581504   -0.20177622873992412
LJ  0.044814721961884511   0.21789254204083133   0.41165716974961847
LJ  -0.14300050748957766   -0.46393102065100789   -0.24013659859579989
LJ  0.26062911589216325   0.46531374591167635   0.29553744104398194
LJ  -0.26752314951620698   0.011031832979330587   -0.10856531652750656
LJ  -0.033203105565036868   -0.47325218145379527   0.32795798153540684
LJ  0.040514198945579616   0.28558638684263971   -0.10717566407595394
LJ  -0.38681535821253465   0.4855582191311088   -0.076788711910326074
LJ  0.27121490022895739   0.091720932167560068   -0.20380428092279348
LJ  -0.073132034698222326   -0.10183637360097227   -0.35430996525606884
LJ  -0.17874414120205176   -0.0021264588753059995   0.22116253028391061
LJ  -0.33221157090109832   -0.26605038680738541   -0.3813149232975912
LJ  -0.13364785216019567   0.36219003246311476   0.25269827073976475
LJ  -0.43750806257208635   0.24370667908995236   0.017018766806026712
LJ  0.20702653235854673   0.1510430252332316   -0.081429800839859443
LJ  -0.33686094466233812   -0.42508518259769551   -0.1864331744788881
LJ  0.39273500955304347   -0.448900771927503   0.0009402737185000478
LJ  -0.35061706829004002   -0.31272534728827406   0.054856001035696392
LJ  0.43563942246807397   -0.38644413140725342   0.40193298072412836
LJ  -0.49923836014778195   0.37175465913904321   -0.44342773787116474
LJ  0.47660574742668554   0.1633891853563402   -0.40521346585750201
LJ  0.44665719048378372   -0.14240187826121453   -0.10206744417238481
LJ  -0.30331666446573108   0.038585283487659446   -0.17474368649052541
LJ  -0.12794942142985802   0.040389440315868358   0.01790306088153059
LJ  0.31050679789161229   -0.15002318950634166   -0.3503992094012317
LJ  -0.19955830995381654   0.022680986143069948   0.39421217091518318
LJ  0.41654467560411995   -0.41607424017531613   -0.30570795261759004
LJ  0.28627620148124838   0.19385103940218087   -0.058713381626607886
LJ  0.40821279926320897   -0.37762084637132382   0.27182976610476312
LJ  -0.27499794345023471   0.32782468466566023   -0.19396392715917934
LJ  -0.34756611687146244   0.35349494564567957   -0.13895224525615818
LJ  -0.49873672154133031   -0.040821733505455968   -0.11342649800776847
LJ  -0.29505892992783989   -0.21339862925643999   -0.038202019585587242
LJ  0.061099240398812323   -0.40744836449189364   0.35704909100535537
LJ  -0.22905065565783192   0.31333720687471844   -0.050779374235472949
LJ  0.47018325985616338   -0.4207504710979858   0.064060250580786363
LJ  -0.10297793454573011   -0.40732302472944143   0.023410887139162107
LJ  0.24351686659443861   -0.3807397133405761   0.21193231077468272
LJ  -0.28814120852028402   0.44629335135667314   -0.35281807885259286
LJ  -0.31309604607225749   0.45470742845767348   -0.026915289210920835
LJ  0.060480318319711367   -0.21642772801146321   0.070816227010738961
LJ  0.030026679458169898   -0.062658194609501477   -0.40925893588978474
LJ  0.049101739312134948   -0.37044664460437943   -0.053912065192540243
LJ  -0.044969069593859677   -0.014954830423270529   0.3648638977228652
LJ  -0.17637111204521852   -0.37387097639246525   -0.084501891740916449
LJ  -0.25194652475267837   0.37987346552417856   -0.32508078716832828
LJ  0.10291215619510366   0.47194441641465545   -0.32445383841438585
LJ  -0.33438672005660469   -0.39856468108865833   -0.43985205390738608
LJ  0.1511072624708916   0.11011421546215334   -0.059780088455780207
LJ  -0.10043739770586056   0.22443428153315956   -0.12414754958673005
LJ  0.27558370939457932   -0.1722021384332951   0.35137313895897371
LJ  -0.060696413439727454   0.039836112041162636   0.19364299760749348
LJ  0.33097390536628801   0.13579024979190063   -0.19514492257930285
LJ  0.062516947881015569   -0.40592747583882538   -0.37078408265979723
LJ  -0.31613548073337855   -0.017066216022229033   -0.46750450674497163
LJ  -0.3238936834382028   0.45959338307215675   0.46520429401843355
LJ  -0.29013102271318597   0.47013018233339421   -0.25982518313173503
LJ  -0.37013951986244847   -0.12833998214866821   -0.48811643973169377
LJ  -0.11651353928965988   -0.03834499389467997   -0.25457946830541839
LJ  0.25782752964754624   -0.47316324073441779   -0.14565710097068851
LJ  -0.41052041839675396   -0.17420363964327595   -0.19958411615842223
