108
#Comment!
LJ  0.31468440347358728   0.3041601163035047   -0.27905450175738045
LJ  -0.35593431063611231   0.3621352026053149   0.056850124200786091
LJ  -0.39535378421402967   -0.37421684579649434   0.41075948288320846
LJ  -0.49700045470484255   -0.19032058141849795   0.36091740581180204
LJ  0.12100472660890185   0.004497834497043612   0.11060087734066559
LJ  -0.35976228239122043   0.33085318066761393   -0.41194354977698622
LJ  0.030499059734651231   -0.32904745021348153   0.25905778107915112
LJ  -0.0035476089644003272   0.077445503033405624   0.39118315981112123
LJ  -0.033226165700340315   -0.46715938510277627   0.15897905903342291
LJ  0.47630135625557085   0.33738281948022236   0.15443950697345116
LJ  0.063097254521898086   0.35364521236328367   -0.41420125769580945
LJ  -0.47429977426406456   -0.32957524808554756   0.35389898905743894
LJ  0.1277334232858392   -0.49884767797945051   0.24414441214948152
LJ  -0.181430446102569   -0.29261842336517774   0.21157564217402433
LJ  -0.034443355175321731   -0.33171884026880105   -0.38487381408498383
LJ  0.23689289775017472   -0.0029074052666040744   -0.34018272313729314
LJ  -0.075802121719254434   0.30839095278847051   -0.40175467224623829
LJ  0.14709009424145811   -0.0086450479644161731   -0.16908981216702748
LJ  0.097120394582232858   0.3152427664078874   0.29759646758590802
LJ  0.28885737316977839   0.0028002747829271647   -0.12242425742764265
LJ  -0.0016602455746101315   0.45662330497960085   0.023637699892979223
LJ  -0.28133424410632352   0.058376962289217009   -0.43517018312106853
LJ  0.11296338975859593   -0.49488043445995494   0.46731598598387886
LJ  -0.0022284221405476342   -0.12506436034502982   0.31337691480966018
LJ  -0.28821955708195673   -0.40384544495403768   -0.048984952870570031
LJ  -0.14219814221284058   -0.19560011009361661   0.19500904460206331
LJ  -0.36093132909348102   0.25492260904738556   -0.14092430336597928
LJ  0.33512203449801453   -0.20733891372271498   0.21912440996828833
LJ  -0.11398146242542509   -0.055714797021714689   0.48226787358386253
LJ  0.45336987851131   -0.45685303629289853   0.3569180673537542
LJ  -0.43690866544012119   -0.046499986999999181   -0.21786426847056459
LJ  -0.46957801838398605   -0.36482059005920831   -0.17939823629867283
LJ  0.081663393295451359   0.038092564298923555   0.2899164162294105
LJ  -0.16749498397999879   0.1273194847380085   0.121853078438719
LJ  0.42336528772347964   -0.42538937793953352   -0.067048245332079814
LJ  -0.48259656768944542   -0.49243247686884417   0.42265638162349561
LJ  -0.23373807331594573   -0.25921311133580432   -0.41999453872237436
LJ  -0.32070213411209136   -0.2850491457176868   0.48434823459028575
LJ  0.37574134841092005   0.47426139513851029   0.17928049458925441
LJ  -0.41050125694452638   0.31195613333174849   -0.035288512569695223
LJ  -0.43134388724740386   -0.032493922152714717   0.024434421754197761
LJ  0.42971294537756377   0.12045511277058704   0.10985744775674357
LJ  -0.037696901311236333   -0.34805601056163593   -0.18066358108034122
LJ  -0.45649676143436946   -0.44003925885482714   -0.11138560472621964
LJ  -0.3487563865458167   -0.46719388907431331   -0.47005763956510943
LJ  -0.24020748363365113   0.45687131753819371   0.10916974783595967
LJ  0.22767634487849589   0.18732592066760892   0.15034128752487086
LJ  0.15173524916914277   0.39496660049960758   -0.20185214668449347
LJ  0.044887680429071326   0.21769766007099245   0.41162023952593713
LJ  -0.14297646495034261   -0.46395170475603442   -0.23993045314625241
LJ  0.26051795072490597   0.46512319082813952   0.29550403863004887
LJ  -0.26760660036299172   0.011122730373520066   -0.108413041445358
LJ  -0.033121753730256644   -0.473070188203705   0.3277197898376345
LJ  0.040712506578484527   0.28542413392528243   -0.10723005996297917
LJ  -0.38693522129851027   0.48562666068389004   -0.076729895751974767
LJ  0.27134971244695716   0.091758822153878733   -0.20409371002838972
LJ  -0.073472159086884758   -0.10187408591533312   -0.35430363198218046
LJ  -0.17853771696442308   -0.0019077066409689978   0.22120497716739901
LJ  -0.33218533027438157   -0.26616403624682555   -0.38127247277354309
LJ  -0.13391230197976062   0.36234341823725841   0.25282712853470968
LJ  -0.43773397782421736   0.24357342972148061   0.017228416166426373
LJ  0.20710294481798674   0.15088783865355399   -0.081540305126034204
LJ  -0.33686401601810917   -0.42476434840652888   -0.18660241284452664
LJ  0.3927402812209051   -0.44871131798086361   0.00089023187209476956
LJ  -0.35068199284843027   -0.31286708095544247   0.054925629566170406
LJ  0.43562182451086157   -0.38621416069828529   0.40169562032091294
LJ  -0.49939900666156428   0.37173956331121344   -0.44356547545943942
LJ  0.47659591459632211   0.16359679787749801   -0.40519027512721406
LJ  0.44662786322802794   -0.14239653573802658   -0.10189632640701986
LJ  -0.30342045235203219   0.038650110051827662   -0.17459693117818559
LJ  -0.12782071175753115   0.040243404632012578   0.017926818953529221
LJ  0.31040960694802339   -0.14984279100870074   -0.35034766658792565
LJ  -0.19952085632178271   0.022525142278202317   0.39396083297653189
LJ  0.41655918291936295   -0.41589577001746625   -0.30567071221471676
LJ  0.28627016710224928   0.19368658618786719   -0.05873753715337008
LJ  0.40826057894126094   -0.37787027501190767   0.2717026363391421
LJ  -0.27485992897189587   0.32780876563635114   -0.19412047819591305
LJ  -0.347638955160056   0.3536568151095032   -0.13875428733964593
LJ  -0.4987634888246098   -0.041208776148037723   -0.11322314068300517
LJ  -0.29535965349740007   -0.21321924550327206   -0.038242421568909252
LJ  0.061337913637587102   -0.40741659966075527   0.35717048710955207
LJ  -0.22919584951478203   0.31344120679211729   -0.0506210749721639
LJ  0.47002481997002582   -0.42113294762187214   0.064108584317210879
LJ  -0.10292560281234971   -0.40736603642253327   0.023969441363912884
LJ  0.24367620391831249   -0.38076003717701201   0.21189097966982243
LJ  -0.28796833644629399   0.44637982521004699   -0.3528484710192516
LJ  -0.31307752851005172   0.45476045984489161   -0.027178794920027113
LJ  0.060630393400961782   -0.2164632975080498   0.070712034234271678
LJ  0.030053824594826029   -0.062554431747630729   -0.40915614206087048
LJ  0.049264739949398541   -0.37049469932253293   -0.053882947579327239
LJ  -0.044928526982954527   -0.01489341733382773   0.36468448440232754
LJ  -0.17641593234010608   -0.37381530424410775   -0.084706492363086375
LJ  -0.25216522015252324   0.37983957154298559   -0.32496188373906748
LJ  0.10302133380599067   0.47193788965070543   -0.32441602462398761
LJ  -0.33424043973588285   -0.39891141249864503   -0.4397657616122983
LJ  0.15123797864519395   0.11006330944704804   -0.059731683645877172
LJ  -0.10071198720021081   0.22451086905197778   -0.12417479594893227
LJ  0.27549750854747757   -0.17219630937707847   0.35150629471458866
LJ  -0.060808941741583786   0.03973269195910778   0.19377535202745433
LJ  0.33104713927318413   0.13571887560292958   -0.19518219236552603
LJ  0.062523884826670595   -0.40604762372553244   -0.37072591983812425
LJ  -0.31627893570987431   -0.017047269547023541   -0.46754389116135214
LJ  -0.32412445282621311   0.45944863180581946   0.46526942908706509
LJ  -0.29029786841176275   0.46998645812214129   -0.26000874298117999
LJ  -0.37016428184686878   -0.12833161542173491   -0.48804025535727297
LJ  -0.11646938512300838   -0.038491493844749342   -0.25468900364981018
LJ  0.25780630241447267   -0.47331959774723864   -0.14579820376857175
LJ  -0.41045040898437618   -0.17426823762722174   -0.19975354291038128
