108
#Comment!
LJ  0.49765030989542547   0.26876836040615509   -0.27499341461056376
LJ  0.15452617592861473   0.48198748622763671   -0.29067539982935048
LJ  0.4559273410514042   -0.27054682723203549   -0.28216682796899112
LJ  -0.4852899836994059   -0.39739599639842005   0.34463901788105067
LJ  -0.21763032096287174   -0.15697327974553169   0.44133204803893444
LJ  0.2752360306516799   -0.17953504633870473   -0.3511964411563977
LJ  -0.06265225946148692   0.32480782971016331   -0.35244561463458574
LJ  -0.31169148918833289   0.33991634200885112   -0.38176222450775127
LJ  0.37292347135391452   0.47704934948085381   -0.25001230109247363
LJ  -0.48932252343439087   0.4918295048821455   -0.39100141876124661
LJ  -0.16878790299306554   0.46366172448125692   -0.47991653545820429
LJ  0.41744801419371003   -0.4128873684125321   -0.094400388801878121
LJ  0.42471233768698546   -0.11261784558464347   0.35189455254465768
LJ  -0.071783409759816563   -0.059092480009281405   0.29214886605992768
LJ  -0.36393086567568766   -0.12859923245513744   -0.38297944623387986
LJ  -0.13825300151618347   -0.30619950579347804   -0.4237994484844303
LJ  0.102135121268837   -0.29321063625743365   -0.39110389917920851
LJ  0.078948984662596505   -0.32808798381089699   0.22741598382085726
LJ  -0.006139920189777338   0.18873247069272495   -0.21443626315738529
LJ  -0.12208468272486357   -0.075400244601667679   -0.36354380484304138
LJ  0.28617247802822404   -0.39235175952452184   -0.38133956681218623
LJ  0.24270665896884042   -0.15334971128358824   0.42007465890223
LJ  0.21595622209946633   0.20679761508862912   -0.30709917063005071
LJ  0.09606492709043285   -0.023203117304504847   0.4846865135390509
LJ  -0.3763391789306515   0.17470205171467024   0.48908477269219014
LJ  -0.41310704737519011   0.30082260491949792   0.23400690012409733
LJ  -0.49796119667397087   0.064541390169540636   -0.38077729752181133
LJ  0.42693737027616863   0.21879641874274616   -0.47491584563837652
LJ  -0.14390329750316402   0.012248944782267878   0.061197392507520446
LJ  -0.27932615781472986   0.35438303771086949   0.38412721088060797
LJ  -0.37807459142201766   0.44098036057965645   -0.20254562906423804
LJ  -0.20083590545670671   0.38368328795278811   -0.0044951389884716102
LJ  0.30380552927458271   0.38007312821716965   -0.43256316106411846
LJ  0.2553502697293758   0.34481007560575583   -0.13885108456893641
LJ  0.11799206193858051   0.23275859604716015   0.023254392896000668
LJ  0.44837589921119902   -0.10681869322471009   -0.44176970518796599
LJ  -0.29264707508840854   -0.42642450292860107   -0.05961326010477843
LJ  -0.34649500191947175   -0.32850291267062182   -0.3879946240036421
LJ  -0.46912486997115305   -0.1030641223566636   0.13530875017925845
LJ  -0.044496939831666547   -0.4455550470293605   0.095459536665476366
LJ  -0.22199741517883137   -0.45487740067134524   -0.30745224204844601
LJ  0.092572139967602385   -0.47551683225884978   -0.060022158387015759
LJ  -0.023105539446605709   -0.41583245848817568   -0.24324700009109776
LJ  -0.11352519704269899   0.34252637082574372   0.20446279974608603
LJ  0.065817436717891337   0.38006226810973792   0.13479165309986654
LJ  0.41095807074462548   -0.051216253638234802   -0.22340202070238213
LJ  0.37425443836666378   -0.21489142059894145   0.032241133228813584
LJ  -0.45355008197511743   -0.15186013299884418   -0.065104243971632669
LJ  0.44503523137043699   -0.27843308056519567   0.49022271696889663
LJ  -0.21096230559085408   0.31018205716770592   -0.20625009001064518
LJ  0.43981419424468882   0.023750764350547113   -0.0020857090261551157
LJ  -0.22640727195612367   -0.25448363863668672   -0.23318189597426731
LJ  0.010018285687150149   0.13368488605715945   -0.39979621945152355
LJ  0.03886632388990411   0.054333366469912353   -0.032348023161806676
LJ  -0.037281957604767615   -0.14869117726045541   0.10644131207175883
LJ  0.10330697871347815   -0.25344303469530699   -0.034438215508484339
LJ  0.2061375113214938   0.081934828058899858   -0.15310448909578545
LJ  0.27850465168912991   0.026681009863126121   -0.37352944939388311
LJ  0.0493514892303911   -0.0065040313317863531   -0.25610109636472661
LJ  0.29132595912170089   0.13884618462561951   0.051878376415470502
LJ  -0.39496856176151879   0.2045319107457006   -0.084543619950198823
LJ  -0.38633058109931967   0.0025335001502290928   -0.24756229800210217
LJ  0.48937755988009668   0.45250960984197663   0.17757888538686864
LJ  -0.07090060035255917   -0.13141001277556552   -0.16217867391018703
LJ  -0.16638668309794086   0.073484485936139515   -0.16392376089724131
LJ  -0.06418804163625208   0.24806375732606295   -0.051148327383979085
LJ  -0.043165348347268429   0.42118846671687865   -0.13858665058003891
LJ  -0.016632128268614092   0.15857392979197066   0.15086007509523902
LJ  0.37628306372926063   0.19056014363018731   -0.12417436581960263
LJ  0.21409083475220747   -0.37063543398567289   -0.17231556233716946
LJ  0.29719931953529111   0.34298803424943169   0.082304921584396645
LJ  0.46178699663079442   0.39045047632658186   -0.088659397752961236
LJ  -0.38412578459244212   0.3952630476107214   0.033650449354430102
LJ  -0.49009962788102662   -0.34444137090435106   0.084343656363023184
LJ  0.29961277018766247   -0.19200542208596252   0.23084709045523732
LJ  0.33669846138676257   0.4998213472596339   0.39467051823554655
LJ  -0.31717936950038406   -0.41503084879029156   0.43704897350561511
LJ  -0.13875001455567326   -0.28042078604340304   0.20928107546091707
LJ  -0.29510661495799495   -0.0684413815774116   0.1954350060182542
LJ  -0.4664639940204815   0.41509418196462217   0.40011570639405164
LJ  0.32781399663130917   -0.39009442783333625   0.20597664383401318
LJ  0.17401838677665654   -0.037905481721681226   0.091359590802490537
LJ  0.047066957861544606   0.45017921888320034   -0.48335280631991656
LJ  0.17349908007281187   -0.38625132364629189   0.4031056252182269
LJ  0.23168229030322751   -0.12970800028432664   -0.11008147625970682
LJ  -0.47063595483114101   0.095936531474494019   0.2035121492411941
LJ  -0.39988846888126012   -0.039264344984371889   0.42522228657170263
LJ  -0.36458280214201849   -0.25246749145145814   0.27467467349384639
LJ  -0.25080577647551922   -0.15940373147040107   0.017104624678550156
LJ  -0.085861647193025387   -0.30533884545956236   -0.04595679793723504
LJ  -0.14672962121715083   0.01096238255818611   0.4709020746429346
LJ  -0.0033704372977077794   -0.23093731661025771   0.45166863752899578
LJ  -0.011705002312254426   0.49877450698370851   0.30173439851589334
LJ  0.46530614898741451   0.22892418081488797   0.086678116825363333
LJ  0.16525013443808692   0.20335605497004985   -0.49413985644035374
LJ  0.34152320591591379   0.032401102371676031   0.24273254271270009
LJ  -0.36394830954539831   0.008170735555775183   -0.033627091499047142
LJ  -0.27344621442270878   0.48285382102367008   0.20529984644893384
LJ  0.34345852031533014   0.26750766319951319   0.34067804229186394
LJ  -0.23912680985229048   0.20283727886260719   0.077984067448877134
LJ  -0.0053248879569410563   0.11383598749033662   0.363736817286268
LJ  0.15389676178174852   0.35991732131546378   0.31407187582810758
LJ  -0.18913859330018412   0.14098566696154655   0.27017257601666783
LJ  -0.22672851685805293   0.13018790537502001   -0.3504594952081852
LJ  0.14128889526785035   -0.059499158204638171   0.27800863384898761
LJ  0.18978979889361855   0.16454446856016763   0.21906362622761971
LJ  -0.05839599894665224   0.32410047698301608   0.41126564730260168
LJ  0.28221868391728033   0.044930642084588523   0.4214135029602995
