108
#Comment!
LJ  0.4978501282601881   0.26865528931835758   -0.27495832416897648
LJ  0.15462397383834828   0.481674271317584   -0.29072590802369536
LJ  0.45628240321990571   -0.27079718228867411   -0.28222834745118092
LJ  -0.48531538235847216   -0.39698239327617396   0.3446283981341105
LJ  -0.21748397262150856   -0.15715276743260659   0.44128755973373951
LJ  0.27516711431470325   -0.17931974659832065   -0.35135136965245006
LJ  -0.06307206792919938   0.32479128025814269   -0.35258291485445881
LJ  -0.31158132803676064   0.34000574807989947   -0.38178891133753601
LJ  0.37297552616427582   0.47652721409636833   -0.25003065868498248
LJ  -0.48916055614460846   0.49175913337954619   -0.3912692272981308
LJ  -0.16867020082423789   0.46351633575050011   -0.47972144675435791
LJ  0.41743785480037088   -0.4126815939640936   -0.0945642010301007
LJ  0.4247481725220108   -0.11273252851519611   0.35198465795078226
LJ  -0.071666866085690673   -0.059214726583630459   0.29228737478474709
LJ  -0.36375133800165133   -0.12852190609400463   -0.38252546323712033
LJ  -0.13820948571176281   -0.30649936295995595   -0.42360761336919056
LJ  0.10258332971646761   -0.29326879086814206   -0.39121577916897637
LJ  0.079133228170598396   -0.3281849930754735   0.22716018953807082
LJ  -0.0060819659906008487   0.18889358295652212   -0.21437529974992409
LJ  -0.12219783952890169   -0.075583074202006051   -0.363691217965461
LJ  0.28572147780356477   -0.39209709217330829   -0.38105907676969003
LJ  0.24254747887474656   -0.15329898001583239   0.41954596842497993
LJ  0.21617388933981893   0.20666806595956663   -0.30754545245089138
LJ  0.096156763010781923   -0.023272435867303418   0.48456735115268557
LJ  -0.37662281908623674   0.17473145915670599   0.4891040807813497
LJ  -0.41312733564898652   0.30093623091760402   0.23400409178297868
LJ  -0.49814763793079725   0.064344428995029554   -0.38059685736811533
LJ  0.42688538634216489   0.21892845066908045   -0.47526178130097668
LJ  -0.14386506734456872   0.012251035800515465   0.061371382434235108
LJ  -0.27930816716024404   0.35462240401631406   0.38385131128408717
LJ  -0.3780592093600969   0.440953797328901   -0.20274612123167804
LJ  -0.20071639240289954   0.38369515550580002   -0.0044824673047421772
LJ  0.30379667554280676   0.37977832967249758   -0.43274218606701875
LJ  0.25548277432293021   0.34506781878351672   -0.13864549731784076
LJ  0.11821825980687996   0.2330787223801126   0.023464457551228449
LJ  0.44857947335571469   -0.10717405072523982   -0.44198301267242707
LJ  -0.29262603664877962   -0.42638991110580515   -0.05952963452416353
LJ  -0.34597961423751111   -0.32842613058923725   -0.38807327309246858
LJ  -0.46927999839273454   -0.10325296477855908   0.13531387242467885
LJ  -0.044423485120596781   -0.44562052211771019   0.095656836865884248
LJ  -0.22176372965098534   -0.45520133370072652   -0.30744855726888304
LJ  0.092714216092922075   -0.47544266968340587   -0.06012458530652235
LJ  -0.023366802838222817   -0.41541835026195656   -0.2431623033697671
LJ  -0.11359756798521965   0.34248963751418887   0.20462566933743898
LJ  0.065671862168571252   0.37996746968646911   0.13431508420766353
LJ  0.41108050218168779   -0.051260186787375567   -0.22311725705018984
LJ  0.37397823303725886   -0.21514528466153451   0.032156075689912432
LJ  -0.45336736965129854   -0.1519319487921065   -0.064871606644118784
LJ  0.44461535367090788   -0.27826570633580738   0.48993961641991546
LJ  -0.21073697942901365   0.31042134388383708   -0.20619667538452366
LJ  0.43996345566181744   0.023851111437866463   -0.0021191997313333381
LJ  -0.2264379775567277   -0.2541846286730492   -0.23285285605169131
LJ  0.0099932826662018828   0.13367539943123391   -0.39960225964038376
LJ  0.03892319232197694   0.054283766088822211   -0.032061770239556066
LJ  -0.037185984805231991   -0.14843654179531565   0.10617309835885269
LJ  0.10349873387578978   -0.25374200779522271   -0.034452350258991009
LJ  0.20582263562728631   0.082032719761481548   -0.1527994126385252
LJ  0.2786530955738693   0.026550463496234661   -0.37356421221069308
LJ  0.049352942549273193   -0.006386138917525791   -0.25605899895804746
LJ  0.29144209871069854   0.13893506412407927   0.051903304328589278
LJ  -0.39466332636249662   0.20439719274337312   -0.084772548986225646
LJ  -0.38647739014084576   0.002226103718854676   -0.24764852264535306
LJ  0.48910806601199075   0.45271082220863818   0.17787762712912983
LJ  -0.070974558868950433   -0.13144421498811693   -0.16224742376934886
LJ  -0.16644864329087425   0.073161561745004669   -0.16409034903750333
LJ  -0.064277819204404729   0.24832830789443341   -0.051193770360117456
LJ  -0.0432827797638385   0.42074822973805887   -0.13842673139253933
LJ  -0.016511218063717276   0.15829457403687747   0.15073641224639769
LJ  0.37654438948363633   0.19063115749926837   -0.12390193017157339
LJ  0.21391020256164145   -0.37062256276601108   -0.17235770087334881
LJ  0.29700507246502578   0.34294333850895786   0.082369321028609235
LJ  0.46180609071699835   0.39029538046626805   -0.088836807225561643
LJ  -0.38403403371289035   0.39510632161374309   0.033735083413860507
LJ  -0.49016577566001623   -0.34452049666398737   0.084331621550962077
LJ  0.29969887353363234   -0.19222006944139255   0.2306917707965469
LJ  0.33648399847292987   -0.49956080396072433   0.39488967004518238
LJ  -0.31743166520671096   -0.41481460960721983   0.43743661109178211
LJ  -0.13894329055227944   -0.28073883833819413   0.20944075341753385
LJ  -0.29497782823604352   -0.068708205317161972   0.19564412680787346
LJ  -0.466393970676442   0.41506977232987724   0.4002331223869543
LJ  0.32780400633210371   -0.38986039863508676   0.20585115874058929
LJ  0.1740385355379343   -0.03765786229236287   0.091240043437532628
LJ  0.046910015250302139   0.45016025248523978   -0.48349054779136946
LJ  0.17309252298840355   -0.38608927683146438   0.40294318645651639
LJ  0.23165695705199435   -0.12947037346489992   -0.1099777344221536
LJ  -0.47070120480831851   0.09604745245097511   0.20362613044018468
LJ  -0.39988488593121652   -0.039225071956680908   0.42546788060929996
LJ  -0.36420620812359955   -0.25229665648573441   0.274902157758111
LJ  -0.25085590557633458   -0.15910998914584226   0.017110324240974428
LJ  -0.08596699070969846   -0.30518777387456514   -0.045726011537301506
LJ  -0.14673956899355178   0.010700337790534394   0.47089025495974085
LJ  -0.0032447303167499521   -0.23075270068921891   0.45116886848787752
LJ  -0.011619985232125266   0.49902306171225214   0.30208627460770826
LJ  0.46494101477974997   0.22866841036313107   0.086595141637066553
LJ  0.1647912839140919   0.20321458175443521   -0.49394872123686046
LJ  0.34160404390825011   0.03210632807018677   0.24263160656602145
LJ  -0.36425729522226113   0.0082250191997048413   -0.033560140854921774
LJ  -0.2729644717393892   0.48292532353998058   0.20526918016287526
LJ  0.34329552487316395   0.26755828199483017   0.34071184352192646
LJ  -0.23888076792961138   0.20298039236326781   0.078342877988635012
LJ  -0.0053634652791408376   0.11395851750432451   0.36371188525291281
LJ  0.15362851257725621   0.35999203234113553   0.31385241980056777
LJ  -0.18925429078081057   0.1410818209497488   0.27005392989651594
LJ  -0.2268391954378883   0.13013935705024782   -0.35064747164031118
LJ  0.14101030516975693   -0.059082030800585057   0.27777715761624305
LJ  0.18987529296575309   0.16449811554077101   0.21895961238642328
LJ  -0.058393687152119476   0.32385752610183666   0.41127712583623771
LJ  0.28227990926497776   0.045112582443715604   0.42136493809229647
