108
#Comment!
LJ  0.4428046939418584   0.49893790461565163   -0.37940637790521209
LJ  -0.077068232838885919   -0.24213819529838035   0.43407768626971205
LJ  0.24747272084949812   -0.15702453416001663   -0.43163840146709548
LJ  -0.36441387506919792   -0.44806244939768353   -0.48328070240574761
LJ  -0.1772107954855637   -0.32498139037080137   -0.37140076130682659
LJ  0.079770211069081803   -0.040101609698607758   -0.35424914856445666
LJ  -0.16250127820286442   -0.22839190243437804   -0.16282878269875983
LJ  0.075441746124083706   -0.43807263896983634   -0.10351486102971887
LJ  -0.17397201398502266   0.4810353507340091   0.44097570900678962
LJ  0.089668102593033469   -0.34902085224749885   0.42196239496555465
LJ  0.27743154556018951   0.4703527932436109   -0.2450140912824636
LJ  0.48322718261681219   -0.45392764777785749   -0.19056071937684638
LJ  -0.3245147333787326   -0.17077155631625066   -0.33904629002900849
LJ  -0.28237028213350612   0.44661014103859648   0.21894247399885119
LJ  -0.49757154925022257   0.034258475055564279   0.47487576779468316
LJ  -0.48728459913283056   -0.2654984002682983   -0.47422594774687404
LJ  -0.081696444785065936   0.1444976434764722   -0.41585506493582081
LJ  -0.037972595501134389   0.014059303927755539   0.35270848795703774
LJ  -0.079759043756776435   0.11864951759980608   -0.2274112988975294
LJ  -0.25497535860469317   -0.0016564895674162743   -0.23385076501614702
LJ  0.40775401827272728   -0.12502986871811519   0.38264794117683537
LJ  0.40523920184438711   -0.0028125126767811208   -0.1711754577376475
LJ  0.47707380876941002   -0.16708519524176643   -0.27182868862121756
LJ  0.25719293134492366   0.042983030114809057   0.43437291548245244
LJ  -0.37965400036040203   0.25468262577430395   0.23129113664459222
LJ  0.47544032186611868   -0.4759953368662172   0.35099714443942204
LJ  -0.31998509244867962   0.35968922181166091   0.39768452184652175
LJ  -0.32605360690626783   0.21837767625550328   -0.25029512574460083
LJ  -0.14337738370186656   0.28126906715813532   0.18850579834047473
LJ  -0.057548955878201628   -0.48553664894931098   -0.40573415286075221
LJ  -0.34991185219147081   -0.36636778828202882   -0.28245792945294756
LJ  0.098625975818325329   0.34929784295535732   -0.26314080757617492
LJ  0.16382629760989953   -0.45754229988891709   -0.39629838346398899
LJ  0.32832523743520431   -0.3213050198009742   -0.35126903573519869
LJ  0.26103446389287355   0.36848475888110138   -0.01609482960662284
LJ  0.49886963461449846   0.37721542587362827   0.48615685400113307
LJ  -0.34613259613120845   0.41337455993839367   -0.13593278478726739
LJ  0.42742582778336052   -0.41696449717097955   0.064668688032120503
LJ  0.40833584260328498   -0.30073691832157706   0.28449199976827827
LJ  -0.36826939336032233   -0.47245978143391526   0.030910448748203211
LJ  -0.17367448106992786   -0.45877893221716487   -0.23253616112311132
LJ  0.031895836398058833   -0.26865350094736257   -0.33082661215240527
LJ  -0.40029532778782773   -0.25466608340848068   -0.13043452437594036
LJ  0.044770797022289248   -0.36075185803540222   0.081562345697206426
LJ  0.033265429086772894   0.45025839608004042   0.13584891829845822
LJ  0.27981344003977526   -0.38320036487817705   -0.096955232030195404
LJ  0.0048067253025694994   0.39768798715177417   0.33972760571220179
LJ  0.46035566564439018   0.34754968187082891   -0.17538427018318728
LJ  0.18875419020229689   -0.19904746978018123   -0.22371251529455768
LJ  -0.38565005681981657   0.16834277571540709   0.43086263437225353
LJ  0.41548040663815461   -0.22282654223004963   -0.038967789322920804
LJ  -0.41711604391693191   0.02358004278229537   -0.34014149946836564
LJ  -0.13177538190543286   -0.095083032112692811   -0.34003538282012891
LJ  0.31272134722845074   0.20300546204937883   -0.13926432310803685
LJ  -0.13199570361540469   0.051526352892487366   0.14381377860115074
LJ  0.0094256603810633048   -0.092839732457035529   0.095748570945143593
LJ  0.023397892744109701   -0.2274043256711773   -0.11236153653687793
LJ  0.16304269221092493   -0.137010960304705   -0.028416734704427914
LJ  -0.16197830673180247   -0.26785222984772311   0.05081967832730596
LJ  0.19930038314562901   0.012001938662324085   -0.14922009185786836
LJ  0.48516367814413935   0.044441590191352867   0.065230943897906096
LJ  -0.19073725352006851   0.34956909549147974   -0.40631424106828279
LJ  0.3706471262167319   0.04654130894649891   0.28424454801072024
LJ  0.10220308833625122   0.1833009658808713   -0.14742521484544713
LJ  -0.071441808462152576   0.20776093191683095   0.020059207605012154
LJ  0.04647541391763612   0.36144227680324198   -0.057233978078797827
LJ  -0.14480531055112153   0.32258123057298488   -0.17081927450180406
LJ  0.10733984497525582   0.085407925885286312   0.018618978877565071
LJ  0.47705241065937815   0.23358439603642225   -0.3653715762145327
LJ  -0.39328426604539707   0.41394538694018707   -0.32018197801612902
LJ  -0.47209684746209085   0.16261949218464067   -0.10174755776716402
LJ  0.29083965994835065   -0.002593711672025881   0.050700301010255085
LJ  -0.32125604570572697   0.33547388477520967   0.052059264535461475
LJ  0.27641556076062462   0.42106564932295815   0.19790067963759128
LJ  0.31145184063698939   -0.35085323917136574   0.45493057662712616
LJ  0.45315550751997907   0.2569780380991365   0.064883976680742111
LJ  -0.40754463786764167   -0.039621862254676413   -0.10661627450662889
LJ  -0.18480399936026479   -0.37039813352896028   0.28168924883277002
LJ  -0.48316295048207841   0.42367031585552778   0.17543511233701367
LJ  -0.2851625894421897   -0.26584864720489004   0.48509113322727748
LJ  0.28575724143150311   0.20188905373648228   0.20288145123842408
LJ  0.19140808708972376   -0.39642478832371397   0.23379224276047375
LJ  0.030173409820436675   0.32813024763813042   -0.46711360136080593
LJ  0.28683732648145371   0.46390738563523776   0.43966106093278545
LJ  0.23440318866577009   -0.2361076295135475   0.1278640518260509
LJ  -0.32293673186311894   -0.10567163954566661   0.082930948456415104
LJ  -0.24947072674093032   -0.055684636844546297   0.47777019393711312
LJ  -0.22279501801738485   0.1215419097061088   0.34030535849862437
LJ  -0.42096683665714074   -0.29554681423116491   0.099457444266897829
LJ  -0.20495975039795233   -0.10911308019943565   0.25913379498637434
LJ  0.15667664330372669   0.033608778732658939   0.22241458898823097
LJ  -0.011644316423028267   -0.25381745894823909   0.23729344853812623
LJ  0.1216680297746635   -0.13879549443197453   0.33721866137331719
LJ  0.41156213286665633   -0.1205568207949417   0.16882924022818943
LJ  0.38334370789613476   -0.021790136099388593   -0.36275392291358061
LJ  -0.40095363235344106   -0.2030733107728698   0.34113155217008051
LJ  -0.13535726663024153   -0.065667740928273835   -0.035936213190931966
LJ  -0.30005390130268678   0.11417434983440664   0.10154000191503922
LJ  -0.40415428237057704   0.054962336324341346   0.27155982928043326
LJ  -0.23880316732308185   0.14618751970075128   -0.092204905739942514
LJ  0.12660246475762482   0.25641603804922103   0.098208779730619519
LJ  -0.1376334927309707   0.49156982863747356   -0.03583641862999954
LJ  -0.12456902959060237   0.26579574897430963   0.4065296287418389
LJ  0.12756400893650752   0.21779786423903205   0.40088756687403992
LJ  0.013190315637685995   -0.022075017895538597   -0.14514658818529097
LJ  0.36695192666189896   0.22575410860541981   0.38224210072882348
LJ  0.22069412299224084   0.11204857505728298   -0.36239662072019402
LJ  0.27375587820870301   0.32334451864787539   -0.38428397022712651
