108
#Comment!
LJ  0.4427297711647753   0.49903230822029143   -0.37959035584051115
LJ  -0.07713553445085243   -0.24217354832917282   0.43359462675014115
LJ  0.24771581235522006   -0.15734902305717158   -0.43177647333835667
LJ  -0.36463952183802245   -0.44810901045786339   -0.48343198756450695
LJ  -0.17724849965964909   -0.32509910101768941   -0.37172535247178845
LJ  0.079980459339287158   -0.04005040760270831   -0.35412327174181452
LJ  -0.16266307870084887   -0.22845099021099458   -0.16308011025012872
LJ  0.075255841898694692   -0.43816294492456959   -0.1033915354374968
LJ  -0.17383021794273545   0.4810947173869613   0.44097564901839587
LJ  0.090200482117483993   -0.3490244626279751   0.42190868187916514
LJ  0.27722568061029701   0.47024963529175429   -0.24515551895892815
LJ  0.48364863125909496   -0.45393815046113528   -0.19052533497592475
LJ  -0.32482100865562347   -0.17077921252403516   -0.33902836455984225
LJ  -0.28239036411757357   0.44657453221708765   0.21891653283710702
LJ  -0.49745630304291111   0.034370714817862184   0.47514931924382736
LJ  -0.48782655235319339   -0.26506478343741202   -0.47414870627587075
LJ  -0.081795694800266855   0.14410494960654571   -0.41554893620714634
LJ  -0.037550424615105056   0.013723653123661628   0.3524353884089394
LJ  -0.080199908496631542   0.11863514249774826   -0.22739715271029198
LJ  -0.25507128255934503   -0.0019971851110389478   -0.23377981996686445
LJ  0.40740065259147196   -0.1251470254393382   0.38302710507191223
LJ  0.40541680007854253   -0.0028516134501378326   -0.17125964469090382
LJ  0.47688949138626513   -0.16695636504637709   -0.27218977430356739
LJ  0.25679543739779148   0.043360064114882579   0.4341071649810061
LJ  -0.37929665252466754   0.25471078958777466   0.2314821793236308
LJ  0.47547336811984253   -0.47627772857589168   0.35096588975553494
LJ  -0.31989312603536663   0.35930307188097793   0.39766916812085329
LJ  -0.32587835884984101   0.21821914465098283   -0.2502184381209388
LJ  -0.14357606597142425   0.28102939634016677   0.18847272706329396
LJ  -0.057586748769465353   -0.48530496019989261   -0.40574714024729275
LJ  -0.35015569122912366   -0.36610543159891562   -0.2821448096658859
LJ  0.09846174519316532   0.34921490643733355   -0.26335348783334611
LJ  0.1638692971502132   -0.45772360941944379   -0.396171298017648
LJ  0.32849877142661643   -0.32154889239536927   -0.35119377797494783
LJ  0.26110338909046749   0.36850995836091283   -0.01612210123106116
LJ  0.49897938024008892   0.37745631621532616   0.48624404096613666
LJ  -0.34607653157485219   0.41346736167578951   -0.13585197995858747
LJ  0.42699315570018526   -0.41717237121568862   0.064381788323225872
LJ  0.40832053542753627   -0.30092556013639465   0.2844483803732929
LJ  -0.36813727351656989   -0.47243652772467859   0.030586606412929231
LJ  -0.17359713714101774   -0.45890969997405173   -0.23265729412939778
LJ  0.031702228824075258   -0.26857884505361113   -0.33106843216926024
LJ  -0.40051764642424942   -0.2547009036530592   -0.13015009818023332
LJ  0.044610961573005148   -0.36073378911259729   0.081370188108056282
LJ  0.033508271218752064   0.45017195928554288   0.13592671697864189
LJ  0.27985564209067199   -0.38306819030351308   -0.097090645193701669
LJ  0.0047939906315567155   0.39751534708693359   0.33946286968498424
LJ  0.46066455808177659   0.34735504157201036   -0.17490482669712049
LJ  0.1886938874027913   -0.19903282574674341   -0.22401970021702317
LJ  -0.38570387880152202   0.16858582754457579   0.4310920039115903
LJ  0.41577220054039898   -0.22256585821071501   -0.038866912587431676
LJ  -0.41719030589244999   0.02382812069411543   -0.34011077469589635
LJ  -0.13199779912551834   -0.094983227076246055   -0.340006717369225
LJ  0.31251035100289748   0.20320191089626022   -0.13910541400520191
LJ  -0.13204338372583718   0.051044486385115051   0.1436357897357467
LJ  0.0095719348612264572   -0.092801561110718106   0.095632686439835621
LJ  0.023237853169105968   -0.22738411513750359   -0.11244220500017076
LJ  0.16334044921486468   -0.1367935621961647   -0.028405142628980754
LJ  -0.16159823653799094   -0.26784157995274538   0.051023140844629139
LJ  0.1994205811231875   0.011775176820615012   -0.1492441071382736
LJ  0.48529628588509399   0.044377966079010414   0.06506427716887242
LJ  -0.19088173788300922   0.34954189615477671   -0.40619944779136857
LJ  0.3703420455910118   0.046511549072583654   0.28408668423838668
LJ  0.10201775011982789   0.1833350987324866   -0.14715302909679415
LJ  -0.071116106971547965   0.20725508765845416   0.02015885250131608
LJ  0.046874518007922895   0.36166921200180929   -0.056982530039095959
LJ  -0.14502398227334767   0.32255844267144057   -0.17119743903058604
LJ  0.10746163268982552   0.085682663465125833   0.018759459637778999
LJ  0.47708670861922603   0.233863485789117   -0.36475956961924427
LJ  -0.39309249604188506   0.41358485542770684   -0.31990021228507493
LJ  -0.47220344977626605   0.16277389482599788   -0.10137367176988689
LJ  0.29068915717344812   -0.0022964548413726836   0.050430689421243201
LJ  -0.32115119933391495   0.33548338570036379   0.051945125564127899
LJ  0.2767432332540114   0.42111750857227637   0.19785488659634232
LJ  0.31156641776649729   -0.35110812272631925   0.4552188707283874
LJ  0.45327680268557119   0.25734016028822992   0.06508530262753795
LJ  -0.40757131027925653   -0.039532775938354532   -0.10644018571379192
LJ  -0.18469858666594594   -0.3702905603675738   0.28148781734243283
LJ  -0.48310991126696851   0.42369207918983098   0.17528520313408089
LJ  -0.28518099208723607   -0.26578754896860907   0.48488676926419516
LJ  0.2857790488459232   0.20236776714264182   0.20302789942203883
LJ  0.191495691196094   -0.39645647330703065   0.23388643693150724
LJ  0.030310390719858506   0.32835710960027625   -0.46728703029028434
LJ  0.28688577690994627   0.46386632234773761   0.4397034608712449
LJ  0.23431788326462757   -0.23611955357963887   0.12778083247902156
LJ  -0.3228940066941336   -0.10516789858714543   0.082879634330916246
LJ  -0.24913881316457448   -0.055701037914667628   0.47827306650416834
LJ  -0.22288261921674257   0.12157295320641685   0.34013470559575854
LJ  -0.42077564585889815   -0.29524799032008925   0.09954033122731315
LJ  -0.20468859833431288   -0.1090760270584932   0.25900219930056129
LJ  0.15639481210538445   0.033568630576024647   0.22246076649299298
LJ  -0.011311445442128233   -0.25359090130063949   0.23729703700684729
LJ  0.12181479876446062   -0.13882372091207154   0.33713145133164135
LJ  0.41125728098926062   -0.1206485209109681   0.16892588143777881
LJ  0.38322217801137282   -0.021637924817566635   -0.36276464555522991
LJ  -0.40096446255612317   -0.20286749070457977   0.3414027091261459
LJ  -0.13519631263717671   -0.065564180476578027   -0.035993393750454093
LJ  -0.30024382459488957   0.11399612271272243   0.10158573400137903
LJ  -0.40400005692418078   0.05487227603220951   0.27152332756366004
LJ  -0.23886640836075951   0.14639480238419539   -0.092204976354425039
LJ  0.12614834674624423   0.25652424838695198   0.097934546426241581
LJ  -0.13751293538863607   0.491556252318196   -0.035593787125672294
LJ  -0.12469790331512924   0.26576370252231557   0.40645457507122179
LJ  0.12735624972890336   0.21741012593625936   0.40073882879406886
LJ  0.013366110443436623   -0.022403957134446182   -0.14536691706503724
LJ  0.36691332139122868   0.22553673828139792   0.38218544092070095
LJ  0.22011504196530493   0.1119309092805135   -0.36233587202076362
LJ  0.27370693730803908   0.32332442326069999   -0.38406109744538874
