108
#Comment!
LJ  -0.47976861313951158   0.44065646929665275   -0.28579479757044091
LJ  -0.22493421788942386   -0.28849199147335797   0.38723344881304811
LJ  0.45384554381076375   -0.19959469147127179   -0.096471791020363032
LJ  0.46497652088334029   -0.32345944411072997   -0.25336143683119616
LJ  -0.010881056924551444   -0.16201704036187289   -0.42288417714497306
LJ  0.084531091314053688   -0.31312233580771226   0.42242956464078751
LJ  -0.29224672874126645   0.43329726400338087   -0.26078538028972803
LJ  -0.17052023268372071   -0.41851575463833829   -0.38568669207203782
LJ  0.22179073898184026   0.4908433155449603   0.37941414829384218
LJ  0.18221872609472711   -0.48152132194284791   -0.42102939125951877
LJ  0.0068325192192687382   -0.49384921547428018   0.45869429341251489
LJ  0.42556934793347861   -0.41939147635598995   0.011775443261642293
LJ  -0.34036682573958105   -0.31742942253986139   -0.39757565071984424
LJ  -0.15907803372113821   0.027464358633738795   0.36545451338807639
LJ  -0.3175510439944973   -0.1298688863978868   -0.19252741801218409
LJ  -0.14181766174151564   -0.24724516984400849   -0.23787747636076159
LJ  -0.19311333724816504   -0.11730646794738389   -0.49015715111700126
LJ  -0.28909902321632408   -0.12181073889198651   0.26846792311090867
LJ  -0.16927515794904194   -0.044029212539876135   -0.30230304651873424
LJ  0.021363659922628953   -0.37912388195286306   -0.35621667900166892
LJ  0.18660363169542399   -0.077313133646268017   0.45078828835790585
LJ  0.45929350533141394   0.10210616535276494   -0.42117316746040762
LJ  0.26618798775897773   0.13287316875087615   -0.38255304880340202
LJ  -0.0071641513077262643   0.051923382069737976   -0.43215741167829186
LJ  -0.35171089651146159   0.035526800271628883   -0.34885682395082751
LJ  -0.33425977174800414   0.086353095457657403   0.4497284937222607
LJ  -0.19151362858084303   0.13721611783574558   -0.21376116895167224
LJ  -0.4101324746341462   0.26222565990107044   -0.45022890408426997
LJ  -0.32401435028918041   0.31271447968876076   0.072009843429507517
LJ  -0.18998692448128496   0.35391981526492533   -0.41886963786087122
LJ  -0.41064584277621957   0.4842591847223538   -0.48126961239815697
LJ  -0.063937302059051987   0.05935951908908426   -0.04509632229381054
LJ  0.14802307166933412   -0.016947130210794525   -0.3200198229683045
LJ  0.091540628986342062   0.31596739088952225   -0.4951929563779135
LJ  0.013582830446975124   0.11667060003023091   0.37884990817074499
LJ  -0.37454708037542184   0.22336180693035571   -0.19834821966882252
LJ  -0.36354232970327605   -0.40775340478305661   -0.16124455807150373
LJ  -0.1972432320762951   -0.2817249547012447   -0.033549760889187451
LJ  -0.30857648826051892   -0.32046167358901378   0.19296800701911826
LJ  -0.20996114085486539   0.32256934617191346   -0.11027572400459171
LJ  -0.025192153526320475   0.3237075978481741   -0.32144297533549038
LJ  -0.14577002066996633   -0.44970193460143393   -0.16733037421186628
LJ  -0.21756011682983112   -0.075236061451176672   -0.0018041245473247197
LJ  -0.015042452430226448   0.49027807731799433   0.0023157266221509589
LJ  0.33967886848466977   -0.44739627154318051   -0.17507578773121871
LJ  0.21305877261074377   -0.15405834715289357   -0.026059402915938504
LJ  0.19296976685100828   -0.46071068356949668   -0.041445909672068966
LJ  -0.46817129260896945   -0.17117697005476315   0.19802506697200348
LJ  0.35871324868390697   -0.032780277194942704   -0.29070358837608151
LJ  -0.45064355663305206   -0.13468382343315824   -0.37223295913751481
LJ  -0.48833968666206157   0.19974583433884255   0.11133800960201623
LJ  0.024416923130869794   -0.30247321336539995   -0.13053621952898531
LJ  0.18822877244980887   -0.20556429128348447   -0.39821782285938445
LJ  0.017103620924582362   0.084932286382085442   -0.21777909432355019
LJ  -0.29259230517166496   0.09129232363540693   0.18360452848541292
LJ  -0.030102911143742413   -0.18220492384692391   0.017202589099647878
LJ  0.21121240040622075   -0.2959034397763603   -0.22401003122852434
LJ  0.33869957766902065   0.09347545533791822   -0.019111703104464112
LJ  0.10964803895866815   0.15098514341504157   -0.038053596332662837
LJ  0.25319680560373298   0.097814746694118646   -0.19088268902811389
LJ  -0.23912733527138552   0.49306089974015471   -0.010905270646161222
LJ  0.49553991317938906   0.056959586813245949   -0.15846882547327501
LJ  0.30045037545534431   -0.035655682743176507   0.14632406552927363
LJ  -0.34906082789145892   0.13872603628388655   -0.023430387066076773
LJ  0.040753270078916472   -0.0964756363336884   -0.16008644018760915
LJ  0.11989621410129483   0.47393768468371567   -0.22413511012291262
LJ  -0.017529134204027713   0.29626433136083019   -0.072744274615008347
LJ  0.14234801459722399   0.25357883951416726   -0.24228723528234786
LJ  0.33447041142082634   0.402166084447317   -0.37898612075169213
LJ  -0.39700016810787631   -0.27573346304052665   0.021175177520409667
LJ  0.33588221116821942   0.32735331467956463   -0.042164913930833353
LJ  0.41093492675888871   0.2283070445307025   -0.23389168135013683
LJ  -0.39130302821881596   0.46174135423974177   0.29560078317984467
LJ  0.45943582761005258   -0.3796096938156302   0.19350461304785696
LJ  -0.45270092321004551   -0.33046289199698675   0.41607842083670915
LJ  0.43118424008349754   -0.47667613548028798   0.372185987238078
LJ  -0.21851481203758352   0.48871172557686837   0.42109393361383179
LJ  -0.22301881387484815   0.46700803935115237   0.18570965553573848
LJ  -0.13360984825256311   -0.21031194737694428   0.21032517400224243
LJ  -0.08471641428268345   -0.39990450188581123   0.20223315905266392
LJ  0.16342872976546652   0.31108285961037263   0.049594339429836425
LJ  0.35547864505133364   -0.23488405794429831   0.092594342108944794
LJ  0.35171655847369176   -0.30567202290935708   -0.4923173650883424
LJ  0.34127689488221447   0.27430892680494795   0.45952249437571396
LJ  0.12157607843128836   -0.18414757452759162   0.20590284153087995
LJ  -0.48352243092886282   0.054445512848404161   0.32217695827994691
LJ  0.39744107791684774   -0.086896159046341223   -0.49168393689810436
LJ  -0.43739494356283648   -0.11254058176447419   0.43242315387494418
LJ  0.49625606307181647   -0.0285924225160567   0.029485679998490041
LJ  0.097222143704428332   -0.34118433577880847   0.079787537520163765
LJ  -0.17253534327637279   0.23681788950086938   0.31541176792807629
LJ  -0.022532142556164307   -0.12349928025938388   0.3781076388166914
LJ  0.091112785243056313   -0.49484687532517074   0.19081144609549297
LJ  0.40157760508349144   0.35043731246695392   0.27513064516689612
LJ  0.10422791207037932   0.090342724505092148   0.15521368563050539
LJ  0.35672917067691706   -0.19629673540722067   0.33638946663785407
LJ  -0.43954529347542654   0.38809333410078717   -0.092210771800853783
LJ  -0.4824785070316755   0.41984263774366459   0.11394346250115522
LJ  0.30741426244464809   0.46483249988657699   0.11627587952322331
LJ  -0.1307468475906815   0.2819345113283161   0.10007477142793778
LJ  -0.056408095269472977   -0.028021836276284604   0.18029900514762071
LJ  0.31313459227049883   0.18710362704992167   0.17481446440536957
LJ  -0.38640836773876647   0.24213112249782451   0.28927811943315018
LJ  -0.17870814933022214   0.16391450869451213   -0.43120653603036974
LJ  0.25025166937350329   -0.35125300377196744   0.25492111762470071
LJ  0.30085051745351843   0.044637628951062755   0.33380509329133751
LJ  0.00055911004448588083   0.38813415457696282   0.29636519451834364
LJ  0.16172764820417049   0.25811882751399712   0.28761350370350747
