108
#Comment!
LJ  -0.47949445089166393   0.440507826306473   -0.28593585965709939
LJ  -0.22493262216093823   -0.28848681071883442   0.38700091117014201
LJ  0.45337183691687388   -0.19943594973584525   -0.0968720865995088
LJ  0.46517035738718576   -0.32311431478009645   -0.25343681740316487
LJ  -0.011040674596842884   -0.16219551164188606   -0.42326443078569204
LJ  0.08459595766986322   -0.31296397684963345   0.42268959291088809
LJ  -0.29203718292830771   0.43285637231513857   -0.26109316453680514
LJ  -0.17026490190736143   -0.4182857887039077   -0.38583139302654512
LJ  0.22189530537748953   0.49105920010376281   0.37946605252165483
LJ  0.18258518128865164   -0.4810999764554077   -0.42072198039081898
LJ  0.0068891327995801955   -0.49400965677646419   0.45881214645941004
LJ  0.42579944578039747   -0.41934621152554502   0.011446407929977906
LJ  -0.34038994118935645   -0.31760896599729255   -0.39800940364579973
LJ  -0.15909918091342942   0.027593408115619621   0.36540087776555347
LJ  -0.31742772755670684   -0.13008378409583535   -0.19294689583459843
LJ  -0.14209871970953361   -0.24730109810171805   -0.23813348223169276
LJ  -0.19314959182559535   -0.1174528692251777   -0.49008304237678835
LJ  -0.28909147148964232   -0.12179548824041993   0.26882255651450399
LJ  -0.16924395954453061   -0.044275186040737928   -0.30230102849226942
LJ  0.021522691367785427   -0.37881443055698394   -0.35632929382755207
LJ  0.18642807136596737   -0.077718099010453692   0.4506535526918195
LJ  0.45944246524110605   0.1024073251096915   -0.42070188210273968
LJ  0.26583406602996856   0.13266254370192787   -0.38260625064146786
LJ  -0.0071852916979482373   0.051809847141919461   -0.4319884262626858
LJ  -0.35194202702631344   0.035785853747755794   -0.34874586565991833
LJ  -0.33419622969658624   0.086506529525105236   0.44980059249252718
LJ  -0.19182861136055815   0.13751147236322828   -0.21385683524191718
LJ  -0.41021070403132193   0.26207667322780853   -0.45030176221695817
LJ  -0.32441856996869128   0.3125274478998698   0.071918878056636923
LJ  -0.18970821654767869   0.35423641299866504   -0.41887858949773427
LJ  -0.41084604718426732   0.48405109317366179   -0.48089560626853906
LJ  -0.063942398286713956   0.059477253528081586   -0.045227155811062042
LJ  0.14818176271686787   -0.016958051135280611   -0.31985042063137181
LJ  0.091368166804899634   0.31568088015276008   -0.49521282277499057
LJ  0.013442972654288596   0.1168081748191015   0.37880454228130522
LJ  -0.37463748928857737   0.22339986067450196   -0.19832183191378264
LJ  -0.36354084323576369   -0.40802706708665221   -0.16130710567088785
LJ  -0.19724777880323821   -0.28142177027081794   -0.033606682823821128
LJ  -0.30865573492186527   -0.32068705901963673   0.19312373326167012
LJ  -0.20984871772976557   0.32248741712937157   -0.11010360657012949
LJ  -0.025305833267099863   0.32364743745602698   -0.32108944311775883
LJ  -0.14556145845208524   -0.44977011137156553   -0.16723056317612073
LJ  -0.21796399479621698   -0.075248131950399894   -0.0019782146221116784
LJ  -0.014742067486047295   0.49031824463291562   0.0025951286424619447
LJ  0.33945438045160486   -0.4469605087509877   -0.17476513553665798
LJ  0.21287559468967535   -0.15378260734351279   -0.026273044165285739
LJ  0.19321976911109026   -0.46080022836250428   -0.041366628962067185
LJ  -0.46815153338041521   -0.17157961951697057   0.19786090934025799
LJ  0.35885076683245959   -0.032561219167746368   -0.29071563856862093
LJ  -0.45067589564222671   -0.13457746924092676   -0.37206485224432068
LJ  -0.48858976172855145   0.1998655629073158   0.11077669703132761
LJ  0.024706882513752682   -0.30243733881618146   -0.13043810322651198
LJ  0.18816321572962336   -0.20585367268152582   -0.39819529432047007
LJ  0.016956844857751233   0.085100411971655049   -0.21778058866292194
LJ  -0.2924777682581477   0.091568303606086754   0.18402645514022123
LJ  -0.03028355922834991   -0.18237958401613999   0.017294530566095544
LJ  0.21137746322234727   -0.29592331988899501   -0.22385278300920733
LJ  0.3389241404921795   0.093383245491737085   -0.019571512883966954
LJ  0.10964870171163187   0.15100839589662751   -0.038373161384085121
LJ  0.25300863543286489   0.097743278413527188   -0.19066207973968635
LJ  -0.23931233470349256   0.49322862017741131   -0.010779662279940927
LJ  0.49591204520994248   0.056932313226934442   -0.15847171122533088
LJ  0.30096443695169933   -0.035623289218867288   0.1462275057531989
LJ  -0.34918993109130508   0.13871206808141362   -0.024018739666803481
LJ  0.040667771998924067   -0.096500125495850034   -0.1599409133783817
LJ  0.11984867509980855   0.47393373809317824   -0.22430233211851069
LJ  -0.017478965362682671   0.29594702904513359   -0.072708433650248053
LJ  0.14276635173355592   0.25353357013887062   -0.2419779297255735
LJ  0.33464078808238973   0.40210649990056713   -0.37928052917094313
LJ  -0.39704042373282716   -0.27588509502717379   0.020871916149575048
LJ  0.33588944822667749   0.32733452319887246   -0.04210861190553318
LJ  0.41058472726017969   0.22837922947661965   -0.23360972124379789
LJ  -0.39108386715959392   0.46200694332921771   0.29537042593578977
LJ  0.45949526207018743   -0.37996721732412492   0.19373288689580553
LJ  -0.45298015476681636   -0.33073312141036176   0.41612311311236405
LJ  0.43084835657681442   -0.47655961517107237   0.37192952740859164
LJ  -0.21833102937548757   0.48881530065207229   0.42124416625526867
LJ  -0.22297364759030008   0.46664788235523774   0.18581739929100757
LJ  -0.13356024194523045   -0.21052723184874969   0.21032786262557085
LJ  -0.084307546998291016   -0.39992532289427518   0.20263741986817393
LJ  0.16308393849092814   0.31144430232374665   0.049597976892231645
LJ  0.35560631120051078   -0.23488914334859168   0.092678327934300322
LJ  0.3516055024286967   -0.30552507771369447   -0.49240967785887785
LJ  0.34097909106662466   0.27438419320279639   0.45957067692291803
LJ  0.12129032370228318   -0.18398469913932933   0.20592885713013631
LJ  -0.48332632405947334   0.054286318300772525   0.32217642276725794
LJ  0.39756656382832944   -0.087159802855869842   -0.4916940855026482
LJ  -0.43740195585395192   -0.11244392748109623   0.43248143552003626
LJ  0.49585787722936542   -0.028284155611447995   0.029176348304073067
LJ  0.097215938453989043   -0.34114132467227176   0.080119656799995762
LJ  -0.17240306252414461   0.23692435624504377   0.31544387573785326
LJ  -0.022564202872950582   -0.12355878929351072   0.3779358836115867
LJ  0.091538538569316028   -0.49461664440496922   0.19105501128833019
LJ  0.40179982125344443   0.35028048416748475   0.27514434762612183
LJ  0.10433004897888651   0.090248039450229467   0.15549374343763664
LJ  0.35663344243016704   -0.19644157749109853   0.33646080390032451
LJ  -0.43948373965712673   0.38770774142263076   -0.09204639236012091
LJ  -0.48254081970199114   0.4199768087147196   0.1137682360782437
LJ  0.30735728063232159   0.46486756136239749   0.11644098209147626
LJ  -0.13085362499300054   0.28179924769287734   0.099718818519579699
LJ  -0.056411039948797592   -0.027920495652644005   0.18025151460737809
LJ  0.31280531271877754   0.18675070667462368   0.17443005586437987
LJ  -0.38645575683137995   0.2421679042907583   0.2895252381818329
LJ  -0.17854619476281586   0.16400266568146191   -0.43125901619041446
LJ  0.25020948740493759   -0.35101311357463566   0.25506648451932185
LJ  0.3008797105200316   0.044642051086260334   0.33370023753607697
LJ  0.00055278996159476707   0.38838398900118182   0.29678299289879972
LJ  0.16183217014028398   0.25813108702553844   0.28780480652320306
