108
#Comment!
LJ  0.25141099119597765   0.37538323518065581   -0.45743574813396221
LJ  0.43510845826358874   -0.15562049023649233   0.061473477177751805
LJ  -0.17221639488718721   -0.42703415468734751   -0.027433972211460305
LJ  -0.12280228029744077   0.33316729892450514   0.12363361807292257
LJ  0.35425014809823729   0.095743592445693901   0.0017790350417528711
LJ  -0.048604020918025299   0.40913266802746912   0.19039086302887173
LJ  0.43743661221054558   0.47246404067513847   -0.46041948898939644
LJ  0.15253153439960437   0.23835324274797592   -0.085912606242792816
LJ  0.073104108948762556   0.34903538893360808   -0.049603300577601699
LJ  -0.35522233675329473   0.11231802242830405   0.4981405219361057
LJ  0.2071233090873254   0.28652529431968227   -0.48732694820918671
LJ  -0.33321203446562886   -0.28066529371169596   0.048011695770247102
LJ  -0.22220858526051238   0.47346859973966843   0.039222487267183498
LJ  0.024685898819381082   0.43790416672886917   -0.13508987286920232
LJ  -0.39732360294413266   0.048201980736059864   -0.010036803947590054
LJ  -0.15779886654868516   0.074948931882266256   -0.34482526599068247
LJ  -0.17442083088038463   -0.33791118174912166   0.41402936985980654
LJ  -0.31763687735110574   0.32139389342884916   -0.017771464431560021
LJ  -0.48586967704949263   -0.22658392610133582   0.0095468214131770833
LJ  0.19734374634777055   -0.42333598162962327   0.24537063649559199
LJ  0.054078094378310779   0.40979971436855067   -0.28499421653825263
LJ  -0.17898509168387552   0.23478109261470662   0.13167470359314903
LJ  -0.16650115617863409   -0.49132238801119821   0.18342673849267327
LJ  0.24192160641474522   -0.17014383860532045   -0.31937726235750935
LJ  -0.0084064941453766105   0.15721560309489321   -0.39761186123467462
LJ  -0.49120229613713456   -0.29168902378451439   -0.39256392255795253
LJ  -0.32478031403620011   0.41932262301242029   0.42296424204910982
LJ  -0.47015823493170072   0.20909649096832694   -0.039059223841821998
LJ  0.10542478259046469   0.12080610157618038   0.46180148854126984
LJ  -0.038912888949785507   0.15293227565214415   0.062751045773832018
LJ  -0.17422266813404094   0.3092967089903233   0.40276407031022532
LJ  0.2837871271813448   0.1647138388375633   -0.14071473239344087
LJ  0.23157067746367696   0.40969031652707155   0.058950718509670319
LJ  -0.23725161767265091   -0.017625126003258693   0.016297539816610487
LJ  -0.39402154426502678   0.38173886524634654   0.13349900737189421
LJ  -0.45439572685879437   0.32341310146802527   0.1879606816453879
LJ  -0.33886863514506887   -0.24435044173350939   0.30112199198192507
LJ  0.1426024739431743   -0.25864503800404909   0.41583620014663969
LJ  0.13535419976250304   -0.36164993589975308   0.45423157499603145
LJ  0.13758602208682655   -0.13947755987473481   0.018246487884802355
LJ  -0.42326773160654374   -0.41926011312237055   0.36789950031691265
LJ  0.23307470627537033   0.44721982867071264   0.24072919395274087
LJ  0.27623621617082617   0.26713607567301262   -0.024260561520215339
LJ  -0.2485721659851533   -0.25613459472399297   -0.38849757620994507
LJ  0.14207472365026153   -0.038961263191370603   -0.1584431770098175
LJ  0.29964171747307955   0.32929092666858145   0.44831469462580809
LJ  -0.32767330761750718   0.3614714269624455   -0.15161779398439712
LJ  0.016198271549949426   0.040144893063934178   -0.42784171543095567
LJ  0.24850396839108352   -0.25100369700406738   -0.47988823331071528
LJ  0.068483631090283603   0.22829651457988676   0.27892536308347066
LJ  -0.39231384165982031   0.20152178275726218   -0.0018149183774706981
LJ  -0.21064743290302496   0.38127100111459594   0.12082812647090792
LJ  -0.24322507596108348   -0.059810267183959022   -0.17806158570894648
LJ  -0.2530069603053986   0.14158786557999634   -0.13858716383866995
LJ  -0.038794133839137726   -0.016252286883263176   0.20115874371013387
LJ  -0.41996235531089454   0.30721719306921252   0.30639908532765459
LJ  -0.45330792545203374   -0.42004093445475638   -0.47230732365437567
LJ  0.1448618874543208   0.41551872021894298   0.15588170737257653
LJ  -0.49816466875472765   -0.49797249157021789   -0.42727629528285416
LJ  -0.26157985065349171   0.1074269426725345   -0.46997043596352234
LJ  -0.39041949184451108   -0.23839689761956681   0.47662961975007395
LJ  0.42739516088783164   0.063926345166233675   0.29321781859405383
LJ  -0.024655107425682662   0.23283378949682731   -0.3541981520406699
LJ  -0.42245941298873346   0.033839203051931291   0.47074160419216787
LJ  -0.24053076683171909   0.24722344981687411   0.2526010966053962
LJ  0.081657914238609908   0.39847611723185244   0.34991623654457965
LJ  0.39751917884211113   -0.37468482718592128   0.34359256802326166
LJ  0.36221553783214899   0.21935216094489218   -0.1934192488007315
LJ  -0.49600171322006747   -0.29944538509692764   0.19845797425090933
LJ  -0.02945848735771351   -0.41850872606746131   0.25039438466259883
LJ  -0.44300024867781207   -0.4022070608002925   -0.13275425673908325
LJ  -0.31960123611216856   -0.44855748708580406   0.26471011090563107
LJ  0.25671149214179528   0.35257155708007887   0.33388194116859465
LJ  0.10889847158090171   -0.30197721992400811   0.022550896246097577
LJ  -0.41679456338400339   -0.22674750370785943   -0.43241355264577058
LJ  -0.38651576755240757   0.073070360438316106   0.40111439087081346
LJ  -0.29508924210221921   0.46737055349650475   0.31498790657368597
LJ  -0.49152959638211619   0.27058218694935315   -0.42732560588109286
LJ  -0.39197566901238051   0.47079547982109643   0.22444786139382569
LJ  0.08458057828665351   -0.20101483615480478   0.49157546490936904
LJ  0.2048643336784004   -0.3181177023276342   0.4114591455466059
LJ  -0.11384872107056379   -0.064013972857951837   0.18224321115585917
LJ  0.060184411203184879   -0.26027104822679803   0.44083475494010221
LJ  -0.065916912252089926   0.15825521746413421   -0.082554325496154365
LJ  0.034153372248247119   0.017400273738381822   0.14116842275133015
LJ  -0.26469106455616087   -0.3263483370241736   -0.45945504435846496
LJ  0.11483296762567596   0.29978385675309577   0.44616582449111547
LJ  -0.40351338781487156   -0.19176981787376929   0.06514671548380617
LJ  0.019360632847482507   -0.050100297760990876   0.38274155022310402
LJ  -0.12333845265273684   0.11390453299930335   -0.18827094713111878
LJ  -0.33184549291284443   0.23747627705638655   0.45226791095512531
LJ  -0.48061744026777853   0.21815184456243675   0.2506851690542416
LJ  0.20332056842762247   -0.38485043391041807   0.34901414199299452
LJ  0.30842772608454816   0.33208917710266955   -0.062640863976545544
LJ  -0.3743590055899223   -0.12310611591570324   0.14971952232500632
LJ  0.023506246491452536   -0.24315464676086518   0.2655685098865076
LJ  0.33178583616677504   -0.14007016366920647   -0.30717836057361919
LJ  0.053918095260386767   -0.22687511713722042   0.054006656786377234
LJ  0.079967800646097265   0.20659947319103203   -0.28573584224854237
LJ  0.29617796530910351   -0.088114209347155942   -0.36119496944764201
LJ  -0.052167890805085791   0.080376014659159681   -0.37648867720008661
LJ  0.37417960357882335   -0.028565013007351956   0.30799127369655382
LJ  -0.36478216860946955   0.14978037350603152   -0.41346573426244265
LJ  -0.10818956459433941   0.20995495755807297   -0.35930941770410685
LJ  -0.24472143254598663   -0.27010323759067451   0.13585072351212124
LJ  0.0814543504287778   0.48683713399522793   0.10634212544275827
LJ  -0.063947124078531939   -0.31881971314937724   0.22436158392272024
LJ  0.37600042841663467   -0.15829079915937655   0.34749992112307082
