108
#Comment!
LJ  0.25146073128315538   0.37542727887216543   -0.45738661319144708
LJ  0.43498555050441301   -0.15561057243134016   0.061451803672850282
LJ  -0.17243862317073927   -0.42710734419567153   -0.02740498249848267
LJ  -0.12278709373798657   0.33325717601706001   0.12362044251674058
LJ  0.35429178925066035   0.095732021107467979   0.0018551564381512698
LJ  -0.048507303592236338   0.40900586661029137   0.1902704913777272
LJ  0.43752182458841249   0.47244108912944843   -0.46048434128223004
LJ  0.15262171894567758   0.23839169579149194   -0.085944989332285684
LJ  0.073216101810826772   0.34900181945964309   -0.049665920927999166
LJ  -0.35525082282558218   0.11227138606233961   0.49831465460982238
LJ  0.20719017913313664   0.28644141544669222   -0.48722567794164501
LJ  -0.33330993433298206   -0.28059069617785437   0.048051908556855025
LJ  -0.22227067852629084   0.47358032123062399   0.039122254478378644
LJ  0.024635875586071943   0.43803257674524859   -0.13506333549719937
LJ  -0.39724778879755845   0.048019568280594373   -0.010093609914494751
LJ  -0.15771132151972306   0.075014247279476337   -0.3448195398250532
LJ  -0.17435146118122541   -0.3379320540730994   0.4139596291079381
LJ  -0.31769711723122768   0.32113433968756516   -0.017637033048211698
LJ  -0.48588755878680806   -0.22651713894804196   0.0095262177905735736
LJ  0.1973885963762019   -0.4234790325365177   0.24544812242589614
LJ  0.054009113253239309   0.4098658891752005   -0.28479278652760642
LJ  -0.17916993469316039   0.23468134471099436   0.13166894556055261
LJ  -0.16666927544726629   -0.49128529721026087   0.18353120998027192
LJ  0.2419412851742557   -0.17006048982916563   -0.31942524100812342
LJ  -0.0083249295806981909   0.15712802941325266   -0.39770120971859158
LJ  -0.49131715203343518   -0.29163978215948211   -0.39279471583098446
LJ  -0.32446920121591649   0.41935677871245425   0.42298914270027221
LJ  -0.47022429025436169   0.20902521062405516   -0.039052581740203859
LJ  0.10533642455935081   0.12069797801488072   0.4617966568679206
LJ  -0.038970938244821791   0.15299716399093466   0.062677990473500089
LJ  -0.17424228503927644   0.30929525665473434   0.40278012125805573
LJ  0.28355975037917597   0.16480241349648855   -0.14071493590519144
LJ  0.23158225324930617   0.40966264575864592   0.058883500677857775
LJ  -0.2372115819841166   -0.017595037333288665   0.016350094195479288
LJ  -0.3938941896255953   0.38173800495726384   0.13340360116588076
LJ  -0.45436481794882877   0.32361508976122849   0.18787962784484091
LJ  -0.33879073900277729   -0.24440864913965529   0.3010577910092207
LJ  0.14261516778618294   -0.25861152727231229   0.41573180414499983
LJ  0.1353822993189393   -0.36177594020856013   0.45415372083675637
LJ  0.13750534147569266   -0.13939487137862103   0.018185459277063241
LJ  -0.42316035380565997   -0.41916730759075016   0.36788775224948145
LJ  0.23316729927004434   0.44712957884433163   0.24046942918213299
LJ  0.27598179746840917   0.26714865171093916   -0.024302880875621952
LJ  -0.2486159698899742   -0.25604855153762873   -0.38838228580779499
LJ  0.14201525789620231   -0.03896246399999418   -0.15848797215874169
LJ  0.29960682859057902   0.3293108853536692   0.44845612099488452
LJ  -0.32769247557371345   0.36138441238906577   -0.15152906963425636
LJ  0.016181103871501096   0.040197562520027978   -0.42787612187573704
LJ  0.24847496393626456   -0.25108794815959762   -0.47987441999021685
LJ  0.068554859730022732   0.22841087558995254   0.27879975374296245
LJ  -0.39241706126603498   0.2015207799105955   -0.001799551212094744
LJ  -0.2108116312360136   0.38125128191347296   0.12085606437337118
LJ  -0.24330340672123271   -0.059774907565167935   -0.17813685105710539
LJ  -0.25299348914746339   0.14164163604121857   -0.13864418496578623
LJ  -0.03877989111262399   -0.01612747555143448   0.20113392540311142
LJ  -0.41996967007756242   0.30716777390858852   0.30636916926812802
LJ  -0.45316034558964763   -0.42003793746442719   -0.47226109525085447
LJ  0.14486523705090024   0.41532030970155992   0.15589715008025556
LJ  -0.49815228159761965   -0.49807432306577071   -0.42711214588822422
LJ  -0.26151011016001174   0.10738655057859063   -0.47005509036417725
LJ  -0.39048113908044418   -0.23823572226293557   0.476807470979007
LJ  0.42734529431806179   0.063826187372070353   0.29319763222795331
LJ  -0.024668957742983451   0.23280982453169641   -0.354078121711984
LJ  -0.42245497107264296   0.033762119393534212   0.4707442833486396
LJ  -0.24061696291000959   0.24723294280565769   0.25267655844850301
LJ  0.081641884789444397   0.39849474676201208   0.35003794278519712
LJ  0.39732840370677464   -0.37465035587242412   0.34378972148817938
LJ  0.36244515234895425   0.21946711232278299   -0.19339532342748947
LJ  -0.49606567967087828   -0.2993614822450123   0.19848187487123073
LJ  -0.029470735054829066   -0.41829878341107002   0.25043724545062124
LJ  -0.44291846545440822   -0.40222961366144655   -0.13263058256193269
LJ  -0.31958664381859975   -0.44855013349701062   0.26480163230823256
LJ  0.2569026944133847   0.35242414782333525   0.33391550841054762
LJ  0.10896484339734323   -0.30192834554849923   0.022504388632068176
LJ  -0.41660673040646623   -0.22675230622854162   -0.43237395533541317
LJ  -0.38671601499207586   0.07304410501569493   0.40101227064910155
LJ  -0.29504179608033515   0.46718749246373664   0.31505574125818769
LJ  -0.49152354490380895   0.27060722377900503   -0.4273757149255612
LJ  -0.39177695420889297   0.47061752874661389   0.22465966654702954
LJ  0.084561768798732465   -0.20113857713688568   0.49160340973751226
LJ  0.20497606091556322   -0.31800947915175698   0.41139441081018285
LJ  -0.11395054555500513   -0.064159743025438518   0.18217882399732666
LJ  0.060317518417146491   -0.26036962888334192   0.44077126022540225
LJ  -0.065748928571108478   0.15825840390385612   -0.082542756944194662
LJ  0.034306704912413548   0.017578327925521504   0.1412353431668695
LJ  -0.26473226892300861   -0.32650583797128774   -0.45953865371706165
LJ  0.11465144990116459   0.29964160634506204   0.44605991117017962
LJ  -0.40346375300131926   -0.19173817239423616   0.06509982854858018
LJ  0.0193526874916541   -0.050184289667696391   0.38266092098000709
LJ  -0.12322113549387367   0.113943390941704   -0.18815870834411089
LJ  -0.33189848098341385   0.2376167706911457   0.45225842497812735
LJ  -0.48055034296603943   0.2181785423779542   0.25082126706237029
LJ  0.20335587143557676   -0.38478501584824426   0.34908723324449925
LJ  0.30853499824686043   0.33221938512128724   -0.06252194359621821
LJ  -0.37444873134068918   -0.12312517824543845   0.14957038843273099
LJ  0.02354841015008639   -0.24317061790599145   0.26554061019526054
LJ  0.33189749585238093   -0.14006073687175713   -0.30731064031236305
LJ  0.053762643617033409   -0.22683279726883143   0.05404940418472641
LJ  0.079995688943791748   0.20660939069295256   -0.28576791551422998
LJ  0.29615349316280765   -0.087929637128838056   -0.36126519524389422
LJ  -0.052322658342183123   0.080225996321372825   -0.37651804573611486
LJ  0.37420210134821164   -0.028378692871509726   0.30806835088727541
LJ  -0.3648772642187012   0.14980371717635371   -0.41356670937093321
LJ  -0.1082152246561114   0.20998904691915388   -0.35914313014529875
LJ  -0.2447540495892252   -0.27015323070000086   0.13567700432935342
LJ  0.081336135706745208   0.48680430766763316   0.10635426369631541
LJ  -0.063883334351854046   -0.31869662764949136   0.2242923126991834
LJ  0.37599838526213786   -0.15829487113697255   0.34743176283704741
