108
#Comment!
LJ  -0.41228673325292808   0.14306707597050594   0.1246614698305383
LJ  -0.0088279563697746654   -0.40173676669390562   -0.0019512358454732812
LJ  0.11045021734283195   0.20034318753751676   -0.01187906702790663
LJ  0.048031515914194807   0.31976873639842401   -0.1891080499987968
LJ  -0.12208763009735413   0.04944384235234394   -0.28860828814419076
LJ  0.31360851957562608   -0.12550321148263921   -0.21589343883063902
LJ  -0.3856253378042111   -0.24407332892179442   -0.44521324119345146
LJ  -0.36460172271051255   -0.16334053139518259   -0.17115707822538295
LJ  -0.22793989612104834   -0.35732014745557122   -0.12928085290194513
LJ  0.16054936391996324   -0.46571149842602633   -0.33377596467859105
LJ  -0.3182341135824458   0.12068477260118997   0.31126482203546019
LJ  0.16662235330003189   -0.021195261149720795   -0.3131837051336499
LJ  0.48060494535862552   0.15812307691727859   0.32473758371268396
LJ  -0.33091863139933447   -0.044902334306130109   0.21441913686173145
LJ  -0.45519079916836447   -0.24898664661464295   0.3300126603464546
LJ  -0.28884652915023257   0.31678428048831719   0.060439323669002169
LJ  0.27174974828356058   0.26227080003078618   0.43858171596000706
LJ  -0.34994378222725092   0.27951183780154831   -0.12264826420187244
LJ  -0.1648992827999142   0.32599394381785923   -0.26107701585489124
LJ  0.44162963223497714   0.49126275124740115   -0.25069207448847852
LJ  0.059200558393865968   0.10840354718257449   0.39149843820833147
LJ  0.071319165886329153   -0.2101125797451727   0.10196323390202772
LJ  -0.064976633736740175   -0.34129473426136009   0.21001417872735151
LJ  -0.078578480541968157   0.1339908027777065   0.24275625215708446
LJ  0.23101650614585836   -0.36306766612135594   0.4854888353023063
LJ  -0.20825595819813586   -0.10058326122698145   -0.46498727914838317
LJ  0.42559801731777702   -0.35694553031357906   -0.057676888308241595
LJ  -0.39626610742034024   -0.051520978243526555   0.43536201080289327
LJ  0.15084307861423638   -0.36141087237090846   -0.13538752793037145
LJ  -0.077295919877817504   -0.27076762503584628   -0.41569144531708435
LJ  0.43814080677216   0.13835900608279134   -0.014742106638695273
LJ  0.29549245391024864   -0.016885353272309424   0.14206206339603528
LJ  -0.01672277392625017   -0.26453616644900479   -0.18278611629299477
LJ  -0.27794432670428015   0.2245368757944475   -0.39035073181893981
LJ  0.40951072987932929   0.34921410507447526   -0.38084824775646486
LJ  0.39652088973041327   -0.38932077779145424   0.32670927344644374
LJ  -0.21061869722868209   -0.46661672995717685   -0.2909387731997537
LJ  -0.22969651243861922   -0.23776634302390948   -0.28817690217126118
LJ  0.17232426742357959   -0.13879183242252335   -0.49831586057096877
LJ  0.21904375038527582   -0.33634612163490113   0.24831049566120697
LJ  -0.22569457083923908   0.41246537658908028   -0.47243550456944272
LJ  -0.011660977353942089   0.33845691321281235   -0.38678634371843884
LJ  -0.30985854177355648   0.00014219262138733457   -0.32897117241186624
LJ  -0.36289570414981298   0.076183779138678645   -0.079691848197291498
LJ  0.47627078818393298   -0.048236053540799899   0.27950995282658236
LJ  0.012466214994729932   0.089737635565606114   -0.16671220752788846
LJ  0.18330791002714647   0.48212006067668306   0.35789693596309557
LJ  0.37318069521874075   -0.19577618540724329   -0.46283976987462749
LJ  0.14274684505256005   -0.23622513437255543   -0.32933737249582051
LJ  0.26184508951127461   0.04069903947064351   0.46773474187194525
LJ  0.38866378141300467   0.33796046060340401   0.28058608925003398
LJ  0.25472089549005472   0.057375260422671222   -0.10330290044671955
LJ  -0.25269698844747435   -0.19771675338023417   0.34194693239115087
LJ  0.31877392430592566   -0.14889693604758572   -0.018481129420960883
LJ  0.20844742114025114   0.34750036484362917   -0.37816581124221343
LJ  -0.11682217098651755   -0.078812339429099557   -0.12525878472229207
LJ  -0.29409373042244513   -0.1176084788860217   0.020436039600544888
LJ  0.056995183071132278   0.03596788112036782   0.09789064892056791
LJ  0.49614828381402359   -0.3042640340737206   -0.2445346889709451
LJ  0.49783480477809416   -0.11643033440794615   -0.3042846247772576
LJ  0.47041171161762274   -0.033382433441555948   -0.1137905002090258
LJ  0.12238936925304957   -0.090241439083609098   0.29134843892683321
LJ  0.12923537057659265   0.16842497256456526   -0.42255014670623409
LJ  -0.17022953130313273   0.31382413879612814   0.23245290341808064
LJ  -0.43455571316694058   0.49944943912286488   -0.073904346915156974
LJ  -0.37554627948241204   0.27806267435874582   0.43834517489285957
LJ  0.24115484446319493   0.43376193005699198   -0.18381059893417256
LJ  -0.22270417768741804   0.48182445113741901   -0.023257440769409651
LJ  -0.25244295970785935   -0.37264683553196265   0.43925705169009954
LJ  -0.11346029409003049   0.48718540325008414   0.34863584296381023
LJ  -0.47918662040865684   0.16141901397763789   -0.2819457422265737
LJ  0.31900443173897519   -0.16787960235023955   0.33608711487521986
LJ  -0.35920754146638295   -0.24635936363741681   0.16897022989973662
LJ  -0.25205309203492299   -0.42887839922453097   0.15485051103066266
LJ  0.49125800608742831   0.32701250852887004   0.10235154060752175
LJ  -0.091393457987209686   -0.13158229818739534   0.19214211752672863
LJ  -0.39156746128570485   0.37911991648870103   -0.3218538143635517
LJ  0.25840230697260369   0.31048157507034729   0.11594179808113395
LJ  0.019482923976117644   -0.46181293739302909   -0.48815819956755935
LJ  0.43279057675081162   -0.40156632254051733   -0.42821962885860337
LJ  -0.1656597373339006   0.012264599017300771   0.37279652419357667
LJ  -0.14036560047607688   0.25693985976579553   0.42055685079896471
LJ  0.086354719459875315   0.41454477394269051   0.020344481083935773
LJ  -0.45692866266436377   -0.47193937584702605   0.12999129634850307
LJ  -0.33931315335899576   0.43698331363397763   0.30759396735183259
LJ  0.2231247868267191   0.1856343089467444   -0.23768480361455327
LJ  0.092945611699733602   -0.48574539744828249   0.18434626887225483
LJ  0.31198659574339616   -0.34351250759740348   -0.22507382316874655
LJ  0.40058819137402085   -0.28633482889303374   0.13386317858485866
LJ  0.23776862608869856   -0.34375152548692273   0.04457500000783509
LJ  -0.13155502484456966   0.067919970335708915   0.031411364999277908
LJ  -0.0046299160929359423   -0.045434978483744191   -0.48135127194819727
LJ  0.34780105753015217   0.45277183490509681   0.46668355649342452
LJ  -0.49670264628080224   -0.077913221476194505   0.085889121156869072
LJ  0.38371970060041999   0.02897402846527301   -0.37475154128634841
LJ  0.044744274386805984   0.35344202847754147   0.39708657662969804
LJ  0.085379074498611582   -0.11744325967525081   -0.097345267171687566
LJ  0.40673939856497177   0.31840126638632299   -0.16642481826687922
LJ  -0.071635984019641691   0.26592985842687417   -0.049051254261090291
LJ  0.33282709114518882   0.46640613267701442   0.034878685575412911
LJ  0.033092762313063857   -0.29084548775398539   0.40850063510452905
LJ  -0.44698671841186305   0.48962249531169127   0.47000362503751869
LJ  -0.48266903017225493   0.11246400216132547   -0.48078855993755637
LJ  -0.38897430837929781   -0.31279522489773609   -0.010838827331863178
LJ  -0.046921005864929963   0.4997129401561422   -0.17299049923251533
LJ  -0.12665951909964221   -0.25093517779517349   0.024835874971952519
LJ  0.25056882046797974   0.13763364447178814   0.27594499666374184
LJ  0.047414510740933377   0.28020900573885543   0.18515899203897959
