108
#Comment!
LJ  0.26027896722461968   0.15683734145409089   -0.01106549179799827
LJ  0.25933048422371469   -0.12994706432546385   -0.021179953111795935
LJ  0.18678746940529084   0.38051532457825088   -0.19244805152357575
LJ  -0.31875784157089088   0.023588011372200689   0.089046558128542855
LJ  -0.068059109360663714   -0.14522799546764598   -0.16379260009180582
LJ  0.47194702125751636   -0.073020510021901477   -0.3575694224055494
LJ  -0.2465839090847376   0.13186076008755454   -0.32318715717772373
LJ  0.40050493533837506   0.019105578723541353   -0.17602438038039867
LJ  0.040006801864685256   -0.47348494458529761   0.049893232662491155
LJ  0.13372942527753384   -0.45786655810814114   -0.35903199699455274
LJ  -0.2382419173196425   0.18593454324983519   0.31389231591387828
LJ  0.31733807216993987   0.098132154698317486   -0.35734221239928171
LJ  -0.45453847936756414   0.16021125591871804   0.049668291402092501
LJ  0.45763827718446753   0.020290802589569491   0.43266691914309152
LJ  -0.43104432245527258   -0.37025801181267459   0.13417956777496912
LJ  -0.068718066779291778   0.40221264763232717   0.14304155141949557
LJ  0.42014127300365189   0.21906636900024692   0.4889499293459586
LJ  -0.39533298568209452   0.42816293910421505   0.017149154597449652
LJ  0.011601113017720512   0.32379002695657488   -0.050553058804030326
LJ  0.35715545995328329   -0.46507533967827969   -0.4211509620131702
LJ  0.17919638519071363   -0.03450583753486506   0.30995041010833685
LJ  -0.09132792528115484   -0.053908930883598459   0.089715145016101533
LJ  -0.15011942915543458   -0.12290958453126809   0.45950818895914963
LJ  -0.040520770984378993   0.2967103814119228   0.32058919335436353
LJ  0.26956943434073982   0.33754412979478521   0.43524768404892783
LJ  -0.23837641300859272   -0.31965244558090022   -0.14960050191557314
LJ  0.20515960961254426   -0.35683837053810347   0.10765519292973691
LJ  -0.15255446932932107   0.39104972071065164   -0.30931865960031529
LJ  0.47325623233888675   -0.34206896015071098   -0.33293602155034974
LJ  -0.20597891048588321   0.31800724988621942   -0.4898216667325887
LJ  0.38116297906713353   0.084583500802721992   0.14164008192707206
LJ  0.37146118487309709   -0.34287906479496727   -0.0066542601978878246
LJ  0.21505816072773565   -0.26883528708030369   -0.47049192900130105
LJ  -0.29372899295064031   0.19789827792527095   -0.074741946036726847
LJ  -0.3971730979039273   0.34247280397451474   -0.18860196936013898
LJ  0.20020768285662746   0.32611645335389577   0.2391311927831366
LJ  0.1977347309538609   -0.45687556023879178   0.43505348448852615
LJ  -0.32425638166399667   -0.43139495112601894   -0.29468655862671511
LJ  0.38974934892907837   -0.18347455278894842   0.45162380905505561
LJ  -0.13777704890901873   -0.24548084619344246   0.098751297240525088
LJ  -0.1933588439736024   -0.36699481059568556   0.49038381136319287
LJ  -0.12452495935483539   -0.049545696518198457   -0.36452677394071142
LJ  -0.31673957530102659   -0.05681115552833315   -0.32370285461556203
LJ  -0.4018122113133219   0.011063746842569175   -0.10732567262979432
LJ  -0.42956288967296452   -0.34250722564893626   0.3625021416268091
LJ  0.12045517564212481   -0.48406523206197372   0.25211222476483713
LJ  0.15407405732990884   0.1423958775325686   -0.26930294612470512
LJ  0.3720770973915849   -0.42659260897044948   0.37074929607883134
LJ  0.10263640574304043   -0.040765095316636565   -0.11278645881132612
LJ  0.30173701825175281   0.13981129786899391   0.32332311616415144
LJ  0.41893147241920475   0.28794976799278349   0.24183581159650641
LJ  -0.050518860491863181   0.1190007713985224   -0.090008003831518441
LJ  0.053774383329793486   -0.028687583965249404   -0.482621317706313
LJ  0.16867219188907387   -0.14419594882968795   -0.26766399925362311
LJ  0.3876152661496588   0.36434804551129479   -0.30043249940150707
LJ  -0.21571231380228736   0.47445681197444312   -0.11710752092531238
LJ  -0.25687549172569285   -0.14422413170931794   -0.036359608627526088
LJ  0.18582651431843503   0.36678957827022429   -0.38988763185787517
LJ  0.030527398020300432   -0.20325293405039266   -0.39971592355744717
LJ  -0.47719446763513873   0.13422363034973406   -0.31058968277586024
LJ  -0.39136910420236576   -0.15758634956124748   0.15956657642560548
LJ  0.32111564249290298   -0.10157288560628486   0.1720461682475567
LJ  0.13243411254627283   0.1697626130811975   0.4313456641747177
LJ  -0.036700747383153355   0.10977571917251941   0.29630289907247276
LJ  0.39565136840028736   0.3209859192419513   0.022252875090534363
LJ  -0.40243502747875298   0.34317011449247858   -0.43963792907707266
LJ  0.19271106788567008   -0.42757540487329193   -0.085942869179550255
LJ  -0.2626435694234811   0.35431953146402806   0.19933008681842682
LJ  -0.046821581156907648   -0.38320182133991121   0.22584439011974008
LJ  -0.12872851485583964   0.1349063630773939   -0.48361253740018484
LJ  -0.36896939236896387   -0.2477245234571484   -0.45908844571882984
LJ  0.094203849474002677   -0.17708193204706116   0.13841612524340988
LJ  -0.43147021250730605   -0.1386447642095324   0.37387881119577432
LJ  -0.2664451361847287   -0.39869959352554224   0.055390569046622248
LJ  0.36197591119961708   0.47543810726754382   -0.13188245085691361
LJ  -0.24797211744367728   -0.061430098308970296   0.29613508278003453
LJ  -0.21454268446620808   -0.23966448959955267   -0.32970903753831698
LJ  0.21866352820586887   0.39064387266351575   0.028687164728421047
LJ  0.19786924580584572   -0.24671389168838614   0.2956185694283574
LJ  -0.38254938545556733   -0.47917064912210516   -0.48581654865773516
LJ  -0.018577942599212697   -0.092989922193464747   0.27628968741350801
LJ  -0.050978707667464096   -0.45395520181651194   -0.41033445904682747
LJ  -0.45077529107937198   0.4717358339272209   0.25617502817950077
LJ  -0.23367825394723599   -0.27228236798238792   0.30872870921704548
LJ  -0.26241585735966144   0.49514897217570769   0.32526139778268109
LJ  0.45110090993372343   0.21103837819330212   -0.12053927601594275
LJ  -0.0020432291829640208   -0.32656642636338801   -0.23614072804305677
LJ  0.3730309649873722   -0.18227117031355985   -0.17133523548727436
LJ  0.39981830058291479   -0.28734255359815464   0.23510634157616089
LJ  -0.067570058624501855   -0.49377830478722595   0.39316520939415966
LJ  -0.13603851414073936   0.17192617224888029   0.12110744518282501
LJ  0.23992437364890143   -0.065904627427254142   -0.49423404489767148
LJ  -0.39023668367853759   0.30445967188063039   0.36474944913440921
LJ  0.34884161471786046   -0.4949453636177516   0.15805161618970381
LJ  -0.34670198819138426   0.041725932092626462   0.49356205215145854
LJ  0.0078622423482876524   0.26892228550721664   -0.24414466697910725
LJ  0.088929386729963547   -0.23332562030749898   -0.048120598362078153
LJ  0.08072720862328836   0.20904822772783416   0.10849088282433325
LJ  -0.21333156105663351   0.023151670085451097   -0.14012793632975046
LJ  -0.41757695858166083   -0.42755147917265696   -0.12562498127858501
LJ  -0.0029962159338196856   -0.27640239022731028   0.40111052572216654
LJ  -0.41782650974962449   -0.21047094373546119   -0.23380175839883732
LJ  -0.42822312688836001   0.076069600799434409   0.26344610412464176
LJ  0.24699222495717618   -0.32494807745916332   -0.26727776664434394
LJ  0.0052627014916927783   0.48185362330915965   -0.1877656339845962
LJ  -0.47621113578043472   -0.21379699687582501   -0.038094209378905078
LJ  0.13409154325386627   0.014653529872886838   0.082634489760423091
LJ  0.023052069631236648   0.33179461661393039   -0.48127726145022814
