108
#Comment!
LJ  -0.17973809665302781   0.18426690326434988   0.16941062371445537
LJ  0.14360866166751562   -0.035806931284852635   0.17908721904655187
LJ  0.16982868381717073   -0.083072534342328405   0.3867266597629534
LJ  0.20584552931651692   -0.30491253754020009   0.026549214218864657
LJ  -0.22902326454397856   -0.4337973683841817   0.49434822345721774
LJ  0.38094479616215798   0.21326800936964996   -0.31080626231966091
LJ  -0.10792085838641126   -0.22841022064492816   -0.060450135768305303
LJ  -0.20177997392996816   0.11145915080299724   -0.24316919894263453
LJ  -0.48549673676089267   0.10842356182585976   0.44793571663795084
LJ  -0.48210648048981491   -0.27592925350484315   -0.15266533139360836
LJ  -0.0052447555494135253   -0.34955821730338782   0.057779035992754475
LJ  -0.24137821015021049   0.32287330276666132   -0.44882315857198912
LJ  -0.2112334699161022   -0.094012702879072249   0.16849986311199977
LJ  -0.10345587655915757   -0.16486051204722657   -0.38126034899312944
LJ  0.11372456724287916   0.18751899167884856   0.20659198424340064
LJ  -0.24308239143502977   0.37938134187567285   0.4039788521466019
LJ  0.43293280682552476   -0.066470363636951968   -0.36892308134552404
LJ  -0.086220391121666337   0.051421309968906578   0.34386341101967993
LJ  -0.17535423474439898   -0.10209444921575045   -0.38483001134177552
LJ  -0.32375916439797708   0.27973609032265478   -0.022188593124855247
LJ  -0.41225276451367349   -0.41664356358223231   -0.08706075711187744
LJ  0.13934207149184508   0.37764302418175122   -0.21345619632576149
LJ  0.28832366400943393   -0.37132604639746569   0.18915859063070639
LJ  -0.20292050383732274   0.27505195915119862   0.4432996445284319
LJ  0.4068680589064062   -0.090601762024808963   -0.0042062780448662304
LJ  0.20453219168867776   0.13002845260397133   0.4021378789006792
LJ  0.34615674747539815   -0.3587891767997487   -0.10094131205991326
LJ  0.14005780796681633   0.28405610253374991   -0.21222264888012987
LJ  -0.023611859824810264   0.19606932097730539   -0.35102751290386663
LJ  -0.42119071105974631   0.29246303170352289   0.06862466613555733
LJ  0.036060418679931323   0.076806900315954788   -0.14839602092817764
LJ  -0.33174350610940734   -0.35185092533607565   -0.18725302464212892
LJ  -0.36430001199939749   -0.36320676664687018   -0.11469138474170844
LJ  -0.25965676209541033   0.42522059181183358   0.12899288303832049
LJ  0.14563935647670864   0.25019983591874484   -0.13132186655543338
LJ  0.096032375103647316   0.31255422486206275   -0.10339501183660976
LJ  -0.2625634891673681   -0.20351410109891263   0.037097197238554515
LJ  -0.43949438325639567   0.067850927707892209   0.1298259538365393
LJ  -0.49667666284223233   0.14915963386701017   -0.34576211357713327
LJ  0.057472214238202909   0.22032536845372028   -0.38521961438333291
LJ  0.11005657945896159   0.40765818238312679   -0.28518083306451553
LJ  0.17971966448280527   0.44910047226593625   -0.14381697140684094
LJ  0.47314426368803131   -0.48228946401006101   0.14651197068926428
LJ  -0.23545631326728206   -0.14541944391871989   0.43848929990748653
LJ  -0.069126461099288841   -0.39017460451854152   0.48980464718445904
LJ  -0.30003058891958428   -0.40880328552255502   -0.078319998569148425
LJ  -0.18929767954911147   -0.10399363083945731   0.31971596614715764
LJ  -0.39870559474800643   0.35069190446085097   -0.41949069898359476
LJ  -0.036564468008998839   0.18578022192261981   0.49578359729900928
LJ  0.16979652781671087   -0.22892805801220084   -0.49566009507933856
LJ  -0.34036729759714135   -0.26727307838733688   0.064053798167378731
LJ  0.24196605723181089   0.30434894103969584   -0.38187834413029303
LJ  -0.10787357215573451   -0.41296913404407276   0.029001908752164157
LJ  -0.40114497272030319   -0.1853170600408944   0.20371771103775047
LJ  -0.13297490371465076   0.25388152806831948   0.19152166596214593
LJ  0.33665271579191991   0.22632915237228565   -0.46957124214118717
LJ  0.29010257090185193   0.10638162981312659   0.024356572008729319
LJ  -0.16814490083827777   -0.036593810162521272   0.0066712386348199496
LJ  -0.13268541861478692   -0.22645461866343039   -0.32953836520339647
LJ  0.28937960455859157   -0.29176267462537991   -0.06382974603432405
LJ  0.29885499012085204   0.039673143512296422   0.43111077342549481
LJ  0.03116823604528279   -0.47449554011502643   -0.34196761962644445
LJ  0.35760499686984959   -0.38079708287221842   -0.24489568880569237
LJ  0.2841674118915547   0.050187515594440062   -0.47838913830838298
LJ  -0.2757789761643642   -0.085617078742044522   -0.37314956187988491
LJ  -0.2085458085077633   0.43185476838108799   0.24020422805784136
LJ  0.26504955807826724   -0.3708060226913425   -0.22083854461084496
LJ  -0.44031574147067043   -0.050078460275736057   0.20951433723265006
LJ  0.47703674672924645   -0.15692166452077574   0.40923307083395444
LJ  -0.11628141393258068   -0.4165915569953732   -0.21429865936849068
LJ  -0.036595201411726987   0.43902003384362476   0.10136274631886623
LJ  -0.29898106445182593   0.44168837448638276   0.24636326903774172
LJ  -0.15520718824604995   -0.35249601835237104   -0.44160239587721306
LJ  -0.25843707279649203   -0.1108200609833033   -0.45450491316214314
LJ  -0.36398681324705418   -0.42397728063879869   -0.36750761224001455
LJ  0.23432534800784621   0.041953467860785604   0.044494840368625041
LJ  -0.11995642240899758   -0.42568121424866795   -0.3862793137772641
LJ  0.039702498836836395   0.49787697042909351   -0.19747519681537004
LJ  -0.26343345703967547   0.17405056352240594   -0.46418977381581683
LJ  -0.40649214865842215   -0.24112398087511311   0.090743344698941214
LJ  -0.35251987821893632   0.32496247222142355   0.23148760706101607
LJ  0.39846897749181059   0.47782557090907352   -0.43511874450649668
LJ  -0.045650438269925535   0.4400938961126184   -0.37095331630413797
LJ  0.48039623944916859   -0.3355491985552746   -0.47482986446165859
LJ  -0.46650397606133714   0.14266800752785272   0.15942140504152072
LJ  -0.28227048616470529   0.46242599056407413   -0.37837681227922088
LJ  -0.46294789177653023   0.41700315573076335   -0.45857114594757498
LJ  -0.38197117372953665   0.36699581588369351   0.48223816480253801
LJ  0.41391928168308484   -0.35067032679222249   -0.14394301162781034
LJ  -0.43488026633425581   -0.090922632828411731   0.45175059124700584
LJ  0.029750482391516599   -0.13994935269561756   0.1442973233550138
LJ  -0.093182711624278394   0.043052355945412124   0.42385489580379282
LJ  -0.2632762356995359   -0.37608160727951073   -0.14389881556772022
LJ  -0.4766311002191907   0.077105920897175551   -0.43402853546311482
LJ  -0.3707375600071029   0.46596533499551412   -0.31950498838524816
LJ  -0.17292142712200514   -0.4403229640187446   0.30084398322886974
LJ  -0.052177007030319009   0.3728037550704611   0.32440737072219139
LJ  0.24794771894175363   0.41127236047979532   -0.18933702455449297
LJ  -0.2942910736204547   -0.31537190652288716   -0.058990375485415976
LJ  0.14932737236193083   0.10234671481360312   0.061854089978143512
LJ  0.43398024219749609   -0.070202918035832659   0.39021230560539749
LJ  0.020679296492695509   0.38900968556041154   -0.31125284951854171
LJ  -0.066538918799888408   -0.31630542150516283   0.4621826804315286
LJ  -0.023763185932217261   -0.2385921309862519   -0.092339294041688696
LJ  -0.35725556823043031   -0.075369107737699878   -0.37235015494050183
LJ  -0.31253678002830892   0.37407592717691113   0.0011786552982272775
LJ  -0.37953106834209255   -0.26392927892268481   -0.036085650621260699
LJ  -0.024392546995723473   0.31364723375391784   -0.070256515421662571
