108
#Comment!
LJ  -0.1797594495977281   0.18423674452100092   0.16943136433234776
LJ  0.14359975254403648   -0.035827808303427897   0.178957846901968
LJ  0.16981219185894073   -0.082964081803978074   0.3867258488352337
LJ  0.20597286576729132   -0.3050275056126529   0.026515468976711986
LJ  -0.22915616114793233   -0.4339216520648348   0.49432834507217971
LJ  0.38106947197066104   0.21325290456342838   -0.31071307007299248
LJ  -0.10778985518585511   -0.22845813899385578   -0.060265456489257248
LJ  -0.20161895603450314   0.11135360951666663   -0.24309410193395883
LJ  -0.48556060326572248   0.10856028087886606   0.44806425825227353
LJ  -0.48212819766044157   -0.276082407708448   -0.15272872152414879
LJ  -0.0052755559076346744   -0.34961591022052818   0.057725166972190683
LJ  -0.24133404357841651   0.32286809421714613   -0.44905998608978592
LJ  -0.211167299653121   -0.094144488607616608   0.16864673913205325
LJ  -0.10343783707963035   -0.16474634130247706   -0.38123739120875599
LJ  0.11373950428219433   0.18754216951933714   0.20658870218188694
LJ  -0.24303068194698019   0.37948885419386064   0.40407043662175152
LJ  0.43292132422884028   -0.066313285544775877   -0.36892203171795013
LJ  -0.086188593878613121   0.051395794691739979   0.34380010929663973
LJ  -0.17536040213641657   -0.10211132208687675   -0.38485101380262293
LJ  -0.32364891590863604   0.27983626391354399   -0.022248574928112837
LJ  -0.41226313000901371   -0.41665650774794466   -0.086961886130362126
LJ  0.13928118337015344   0.37774699571601905   -0.21341709001198592
LJ  0.28846500602543013   -0.37132575756647607   0.18922981805741421
LJ  -0.20291029197039892   0.27520650700164828   0.44325533220785196
LJ  0.40690804881590575   -0.090781198581669317   -0.0041083710157893182
LJ  0.20441506827149478   0.12995440866977753   0.40219050735699402
LJ  0.34630101391549201   -0.35890367425319253   -0.1010283568223703
LJ  0.14000873742501879   0.28415456808606326   -0.21210528567713041
LJ  -0.023619932282509987   0.19595157537831695   -0.35094429188783993
LJ  -0.4211174546178782   0.29257592321422737   0.068704359708639084
LJ  0.036070156368812001   0.07680830612816604   -0.14842459893582352
LJ  -0.3316241735215214   -0.35171996087277124   -0.18738774012403128
LJ  -0.36433978343478757   -0.36324260504364492   -0.11460489043142359
LJ  -0.25966691271048986   0.42524927521103734   0.12900508863181567
LJ  0.14565050418743056   0.25027176296428577   -0.13133591723315072
LJ  0.096109250093208087   0.31267727856160599   -0.10327499012338053
LJ  -0.2625991591526543   -0.20355974467432697   0.037051432452670799
LJ  -0.43963300243938219   0.067784099040614831   0.1298599803537995
LJ  -0.49660034125823554   0.14914936518298211   -0.34579250226192454
LJ  0.05738162531742249   0.22025044507540448   -0.3851788343191464
LJ  0.11000135320431109   0.40769289556846461   -0.28505178558142319
LJ  0.17975169980035433   0.44916244867369676   -0.14382399375900334
LJ  0.47300540941185271   -0.48228295649309483   0.14647180969080503
LJ  -0.23538217441708859   -0.14537306250970536   0.43851756571782713
LJ  -0.069097262241240381   -0.39029823925974438   0.48984328735274513
LJ  -0.30011824717377417   -0.40870868925665021   -0.078411550794334595
LJ  -0.18928429384724321   -0.10384177808853504   0.31965218002087503
LJ  -0.39867859152190538   0.35072482104826946   -0.41925544406403542
LJ  -0.03668677213123326   0.18566069598492729   0.49581507194896368
LJ  0.16985259934582075   -0.22902103409288585   -0.49548523512886489
LJ  -0.3403997637277017   -0.26725014441314837   0.06410357137969222
LJ  0.24182295522826389   0.30437496991204055   -0.38187812248331671
LJ  -0.10792461796425289   -0.41294371658660167   0.028943020762854536
LJ  -0.40106203936423213   -0.18524769691019541   0.20379190116763055
LJ  -0.13312359715671351   0.25379772108733545   0.19161315511195692
LJ  0.33660166824525312   0.22630367118487174   -0.4695946862616408
LJ  0.29010586766763174   0.10631393703183452   0.024342966152185411
LJ  -0.16817839298005732   -0.036678164780731805   0.0066125450799250415
LJ  -0.13253755765167102   -0.226287437540031   -0.32962722157954022
LJ  0.28946950763780938   -0.29181827467792687   -0.063935803680572029
LJ  0.29877900235127364   0.039624840755955376   0.43112497161004798
LJ  0.031096187040291302   -0.47451632207663341   -0.34197886058017019
LJ  0.3577666993944103   -0.380639934220936   -0.24489880739805059
LJ  0.28419895618468949   0.050227401093814579   -0.47856866852132363
LJ  -0.27574283083381301   -0.085696669947201376   -0.37311003979089263
LJ  -0.20853638917968406   0.43183615408058368   0.24028509470597489
LJ  0.26495620098052941   -0.37079667816045797   -0.22084753927245598
LJ  -0.44031172255881523   -0.050050279155572558   0.20953142031580424
LJ  0.4772277981886216   -0.15683969230217823   0.40921750942939711
LJ  -0.11634002171386304   -0.41655641379492431   -0.21428393544499663
LJ  -0.036697707253678373   0.4391138957068445   0.1012926731049279
LJ  -0.2990311276590738   0.44172913309898865   0.24644530129008393
LJ  -0.1552081884830715   -0.35272305203624715   -0.44162193779094638
LJ  -0.25834942982876968   -0.11071267547885588   -0.45449069728621039
LJ  -0.36400205178623551   -0.42397463295236465   -0.36772479771132877
LJ  0.23422752028860497   0.041903481267220932   0.044398653834643517
LJ  -0.11992660568527376   -0.42564592048735256   -0.38618145811465865
LJ  0.039706347626741023   0.49781134122418402   -0.19744875616536106
LJ  -0.26349053589207888   0.1740358045961703   -0.46423774609510077
LJ  -0.40655274755286852   -0.2411534887156119   0.090742091291266105
LJ  -0.35233713849950837   0.32495283360219834   0.23154704359197528
LJ  0.39847902455909523   0.47786955895951966   -0.43506131028701434
LJ  -0.04568648440666008   0.44019598603449933   -0.37098412263283709
LJ  0.48050428121728994   -0.33550984743601581   -0.47492351615552364
LJ  -0.46659582329150245   0.14279358228519579   0.15938071216122582
LJ  -0.28225093837145365   0.46249858468043165   -0.37836358423905608
LJ  -0.46291923514021743   0.41711858006259173   -0.45858676953373934
LJ  -0.38194181897118801   0.366937470311471   0.48220997143499245
LJ  0.41395262530726218   -0.35068391039061675   -0.14404982763010984
LJ  -0.43490155080374715   -0.090886390138780332   0.45179728600525054
LJ  0.029802114355036068   -0.14000207158126352   0.14416464355273603
LJ  -0.093316689023207902   0.042954038983733248   0.4237987058116256
LJ  -0.26322012237199549   -0.37622461037696941   -0.14385185289371105
LJ  -0.47646791608953193   0.077062609803827509   -0.43399501053669071
LJ  -0.37081325978627067   0.4659185052174305   -0.31947019921395298
LJ  -0.17293412546722686   -0.44009718875694825   0.30076145313728203
LJ  -0.052335139981615542   0.37296617580514596   0.32434994595559491
LJ  0.24787354297231101   0.41130870395392244   -0.1893338867295383
LJ  -0.29438852287903877   -0.31526873607224842   -0.058984674115428203
LJ  0.14917309401941498   0.10233058851320662   0.061603679105979921
LJ  0.43387808546313561   -0.07030932182440057   0.3902773697326245
LJ  0.020662651199487542   0.38904147483449653   -0.31136959568384065
LJ  -0.066553314298821359   -0.31625355282956469   0.46206062496836914
LJ  -0.023835466778616345   -0.23885976660990879   -0.092334207033221552
LJ  -0.35723783346343191   -0.075412263705240609   -0.3724436807352085
LJ  -0.31250104885228286   0.37398376991520771   0.0012630267324876059
LJ  -0.37951391537015744   -0.26392761313614393   -0.035981195591529673
LJ  -0.024357149833130216   0.31333371721835734   -0.070234434062810269
