108
#Comment!
LJ  0.43919215168045334   0.38765064035496999   -0.46933959944836146
LJ  -0.30486180999548512   -0.40716129795021822   0.23185676850783005
LJ  0.35281164358779349   -0.25171297548246002   -0.37156570166938441
LJ  -0.29134968224937907   -0.32507532173063369   -0.43962153958006367
LJ  -0.085461881900401993   -0.28859157818192616   -0.40310373327798343
LJ  0.31539414222668882   0.094060044475970772   -0.48006299464005137
LJ  -0.27444342159333696   -0.19931953811109571   -0.28708067032258644
LJ  0.04425870377246989   0.35321281836763246   -0.19626208723372654
LJ  0.10430419596755264   0.28101991140395444   -0.38969067504494931
LJ  0.34079691230662679   0.46768159872306975   -0.31236338234254413
LJ  -0.3166651125309583   -0.45648785332916564   -0.18933368864242947
LJ  0.48296120142023263   -0.39461858893667506   -0.19672352651709155
LJ  -0.38231969102326174   -0.22366722855471508   0.37873270290882904
LJ  -0.31484876794131295   0.047224171053193445   -0.45208519940824959
LJ  -0.43379419007247461   -0.12253975863098247   -0.42630460429306893
LJ  -0.20085953447764829   -0.14471040193780912   0.4756936977008534
LJ  0.018141460172532559   -0.098225363490983153   -0.35744075371206441
LJ  -0.1805030209120469   -0.37495959645432281   0.40887071296455707
LJ  -0.11698104116936708   -0.1385859127058976   -0.17219234785714904
LJ  -0.16046193485279781   -0.45489646197767786   -0.30575160418213959
LJ  0.27657620686092482   0.038110190762357707   0.30949650196839257
LJ  0.49948147259456099   0.03684717289377621   0.41270282876974157
LJ  0.33415726353710362   0.24141221567732082   0.37803596030215642
LJ  0.16372883272226454   -0.081671205617970075   0.43672204939275056
LJ  -0.36697943687718343   0.28144746248804786   0.47583966856663484
LJ  -0.29823783139250754   0.043335892615362769   0.30375452080602777
LJ  -0.30208590103916128   0.43988348694195084   -0.40961725121309367
LJ  -0.12334807036269471   0.25034277696766022   -0.47724203761049871
LJ  -0.22387092434874195   0.021682522886403453   0.097148777554509069
LJ  -0.065208039422129827   0.079119071572685093   0.31900393068821858
LJ  -0.44210693478726554   -0.47433996205131224   -0.026812858530866086
LJ  -0.090029300869659226   0.26508126202705184   0.020222757237877285
LJ  -0.032784289297414386   0.13993955197480648   -0.28344179675660269
LJ  0.17518765857320387   0.080989426133547454   -0.320088797749778
LJ  0.2356284995567674   0.38336263953627076   -0.16330340346942546
LJ  -0.41703572929935212   -0.048051074433550126   -0.23930520246360862
LJ  0.4521426469176138   -0.13521176838397844   -0.1212758925406905
LJ  -0.27930579998565169   -0.10081831602012292   -0.078968364935744662
LJ  0.28794018449018538   -0.39755018839818956   0.19288142641809891
LJ  -0.37312394446054808   -0.26722876580174737   -0.10192262257238187
LJ  0.11979821786069141   0.29450822552905165   0.021801209210521064
LJ  -0.084940988851707991   -0.49694831907880471   -0.034475218171550547
LJ  -0.17070426855208587   -0.32037986463294438   -0.1463344638071776
LJ  0.082751014549062488   -0.45471383877861848   0.098301095075915196
LJ  0.09980415272459725   -0.44784129621892221   -0.14058408613535608
LJ  0.386171083892346   -0.042982757846186603   -0.30452259524518782
LJ  0.14280442790286221   0.44821560169993541   0.30377419733069666
LJ  0.29368855604855265   -0.19432693627085207   0.036803610215474979
LJ  0.37446460260857461   -0.12544631009793891   0.46497615784654106
LJ  -0.28998733523659986   0.21515254748331805   -0.34022416483932627
LJ  0.43142922097697556   0.14657549789952853   -0.16702203225062734
LJ  -0.19984535035470397   0.0026861758487516504   -0.27753934816163928
LJ  0.11806046658377496   0.13777214381363256   -0.1222014519138281
LJ  0.27197813570985802   0.46126544285364673   0.015833296160912138
LJ  -0.25406574726166237   -0.36655329663741298   0.035128546846170061
LJ  0.024170350349663684   -0.27853278531288489   -0.23562724205849142
LJ  0.21186025202430492   -0.12258697181512924   -0.1983830906580569
LJ  -0.48367789972923425   0.12516350541052376   -0.36136314300372746
LJ  -0.0092671838007512553   -0.24019335248875767   -0.052765365431247074
LJ  0.11258172081085949   0.19292138479777607   0.28679261672290013
LJ  0.48120654689384013   -0.47450216754914626   0.18316944159024209
LJ  -0.49207342912930857   0.33635238767783115   -0.25497859430591568
LJ  -0.33948553930955594   0.16219587560720189   0.10966032360159927
LJ  -0.21898527168285858   0.17090797953229989   -0.1019513337782275
LJ  -0.065777887035666185   0.026158172151301336   -0.08302792492412131
LJ  0.01058443400392705   0.33778326554493393   0.19958317337866452
LJ  -0.26056018932995878   0.38703872674214945   -0.059651790812001809
LJ  0.23220372790835628   0.15973430203489075   0.1410924853398477
LJ  0.27980624637229301   -0.35092596014191596   -0.18980781860905893
LJ  0.1354776210501745   -0.46081325500195808   -0.3562031277983333
LJ  0.28500663369472579   0.35934055377553636   0.18990448084296704
LJ  0.29344749811716148   0.26169110681323571   -0.29125198112355838
LJ  0.4334789542498641   0.40458227832065519   -0.079450823177913563
LJ  -0.39539942572664016   0.48177111482380813   0.41737589884229498
LJ  0.32181584925377693   -0.17625345636296072   0.24354830976928982
LJ  -0.48741276514850801   -0.41502552685245386   -0.39706273696846822
LJ  -0.16608323461122537   0.44146411340904812   0.13680639861617075
LJ  -0.086055944150129904   0.45530669543264113   -0.47698580812305369
LJ  -0.03170684743145262   -0.45886724449844846   0.27945553640999288
LJ  -0.20323196464037657   0.37599106071672056   0.35467599459991334
LJ  0.3686558044641996   -0.49705101024838455   0.35187091543456533
LJ  0.4393524786040946   -0.32214561184690971   0.30208592785202948
LJ  0.25259596109912952   -0.32461146647564815   0.39391963900982435
LJ  0.2192752830730316   0.41791590998659967   -0.49219354388659031
LJ  0.31460348254596004   0.026750130981576723   -0.032087192227375674
LJ  -0.44512600435538385   0.00566884203273311   -0.010875502221650232
LJ  -0.45238083766478882   -0.062973644938203024   0.24046748538618076
LJ  0.47424328276818206   -0.18660514950629334   0.10176049454401012
LJ  0.38931171076164789   -0.37723262002488422   0.018003912193090894
LJ  0.023232324993534934   -0.37291306631492765   0.44007924450253988
LJ  -0.14654475268986095   -0.12151933434667463   0.27600457670413331
LJ  0.14801526739910881   -0.26496228861255727   -0.42784432428555108
LJ  0.12658870618704091   -0.24686719665036749   0.12421979317796988
LJ  0.36669364071426602   0.25923776293805484   0.015575165296474073
LJ  0.060765457005254757   0.10032742967322564   -0.49019627071850908
LJ  0.37096212468404982   -0.0025618774038259282   0.15342310623134589
LJ  -0.43980508432762266   0.26730468893240023   -0.055402720369483377
LJ  -0.37093210954583739   0.38080581102433547   0.11340100988190498
LJ  0.49127023324175606   0.35014352675258786   0.26661695496776139
LJ  0.054937836858266934   0.10160421610511908   0.098275813036546894
LJ  -0.035157762099447751   -0.089993521019107972   0.072394986766386463
LJ  0.034376671781293389   -0.20285646827024209   0.351787258782156
LJ  -0.19537044112025759   0.21608951503004795   0.23392309540857317
LJ  -0.13176742439386382   0.052085936975769735   -0.49162668955104083
LJ  0.14560692859527857   -0.073996979792139275   -0.026164447522164062
LJ  0.095690851206874664   -0.036592489983824666   0.22122456739714264
LJ  0.034727804902916375   0.31888393437303025   0.42311087993431545
LJ  0.45681323815507752   0.18140050364535723   0.2109152653952136
