108
#Comment!
LJ  0.43921033355855105   0.38793157936840655   -0.46905298321678218
LJ  -0.30475242756922238   -0.4071208662518298   0.23147550098438865
LJ  0.35268344394583045   -0.25198154573439108   -0.37173316701191483
LJ  -0.29170908183724842   -0.32504234324017461   -0.43970929707397849
LJ  -0.084911549987270574   -0.28860069523790693   -0.40293933630365802
LJ  0.31507302923709518   0.094032560952498817   -0.48026093097557093
LJ  -0.27407858602536744   -0.19901402194136339   -0.28697569890954305
LJ  0.044153028093069972   0.35305794463854734   -0.19653203299007413
LJ  0.10464628728338521   0.28131374799565345   -0.3895993043749823
LJ  0.34091274498064911   0.46783127319010209   -0.31258522313561304
LJ  -0.31685104156517968   -0.45659345114008576   -0.18946528355090983
LJ  0.48334900043224444   -0.39487533747081538   -0.19710621387672844
LJ  -0.38264800297653645   -0.22366788943186694   0.37859965806424023
LJ  -0.31465530099459399   0.046801151007614387   -0.4519927636551655
LJ  -0.43390384484517419   -0.12255071750474363   -0.42657296982588561
LJ  -0.20057133731132229   -0.14484588913216428   0.47555260488625456
LJ  0.0183022739563421   -0.097992225187889942   -0.35747123853670276
LJ  -0.18054536732031412   -0.37480324994607028   0.40884172508761218
LJ  -0.11665680465674876   -0.13862811588768181   -0.17220078563552019
LJ  -0.16035330260275926   -0.45475543405875785   -0.30580138788974287
LJ  0.2761847176213228   0.037913920064240672   0.30917049232574834
LJ  0.49944486937491006   0.036836205711138006   0.41283676294614574
LJ  0.33427590001037039   0.24094858628194007   0.37799701550643894
LJ  0.16418859647593465   -0.081900844563638706   0.43675938073380494
LJ  -0.36698697819970649   0.28145728536342363   0.4758472577495978
LJ  -0.29825236509430225   0.043117284233014391   0.304119875126449
LJ  -0.30225486693401987   0.4398034655179805   -0.40962598913237408
LJ  -0.12349819788171988   0.25014684730338954   -0.47700302548449386
LJ  -0.22387603822140051   0.021512832354297996   0.097063704951265303
LJ  -0.065125583817813831   0.07879130803776678   0.31921599399529937
LJ  -0.44230094102670048   -0.47492813706134163   -0.026926787336351565
LJ  -0.09006864619360154   0.26516041391585765   0.019912075522881247
LJ  -0.032979785458652454   0.13987891825267412   -0.28328999573097741
LJ  0.17532027019999238   0.081224924838501217   -0.32068812905693606
LJ  0.23548013493126058   0.3833574348944872   -0.16304440092467176
LJ  -0.41708800778587346   -0.047675610783688399   -0.23922380892524631
LJ  0.45246165861895504   -0.13530549793376942   -0.12153235962001165
LJ  -0.27931996315207941   -0.10083762013261056   -0.078860979956565561
LJ  0.28795190238327323   -0.39775586810106234   0.1929103427947208
LJ  -0.37330945941667371   -0.26720389327067473   -0.10210611917727029
LJ  0.11977974746948217   0.29448144196122905   0.02178502067454726
LJ  -0.084901175597011852   -0.49705200828892587   -0.034502650307606617
LJ  -0.1707878496221048   -0.32003640551688939   -0.14629258904868439
LJ  0.082653371440055898   -0.45475224308078527   0.098712654982590339
LJ  0.099765287649361559   -0.44779495720496776   -0.14031459295826415
LJ  0.38621292641219829   -0.042736795119600955   -0.30442568956550459
LJ  0.14277182980404826   0.44783485368238785   0.30427259410171587
LJ  0.29331582939116335   -0.19456847612682443   0.036745630908066138
LJ  0.37465735699710567   -0.12545535688078607   0.46493878709252695
LJ  -0.29017133636450865   0.2152977627886539   -0.34007042624697525
LJ  0.43172318348260003   0.14637571604196251   -0.16740061762011429
LJ  -0.19977430224987289   0.0024658632695189896   -0.27746783896920241
LJ  0.11820644354474893   0.13739456090681756   -0.12232859519439714
LJ  0.2723470207399844   0.46112367958524197   0.015609118298442236
LJ  -0.25443813268297893   -0.36653701573017133   0.035469065307056749
LJ  0.024315354035356788   -0.27824338557682082   -0.23546125209857904
LJ  0.21204008734668092   -0.12252559609689725   -0.1988448169934969
LJ  -0.48361374701470256   0.12528714481424855   -0.3616630027917449
LJ  -0.0089873993392769053   -0.24004771507806183   -0.052786511301882215
LJ  0.11246620901777214   0.19313613221652298   0.28710244205816587
LJ  0.48129559238348441   -0.47466491002007599   0.18346975051961631
LJ  -0.49207498087214246   0.33605548918612449   -0.25474130782654308
LJ  -0.33960700132033061   0.16246327223379087   0.10955228399191949
LJ  -0.2190224387399726   0.17102988034223141   -0.10196380070732765
LJ  -0.065547839084734133   0.026397975307917085   -0.082994890041473229
LJ  0.010424738664185074   0.33749594249603032   0.19979818478859543
LJ  -0.26067934551806632   0.38710384920275809   -0.059500157844477798
LJ  0.23201656037433105   0.15969102121578976   0.14102786312522309
LJ  0.28023274363126666   -0.35112392589575631   -0.18965317180754232
LJ  0.13542029945278752   -0.46114599107412335   -0.35606870018893266
LJ  0.28467212833282718   0.35932419952690464   0.18990856265803416
LJ  0.29353376036953999   0.26190097542403284   -0.29114596918361213
LJ  0.43363533976894852   0.40483325366105166   -0.079737125926226754
LJ  -0.39522078356094426   0.48216284885428773   0.41728191337495785
LJ  0.32207457594283329   -0.17625452372536968   0.24386557958962801
LJ  -0.48768188431699033   -0.41472396671420381   -0.39733504314789725
LJ  -0.16657222555234893   0.44135229992017272   0.13698969948751138
LJ  -0.086060491898175995   0.45526573169501311   -0.4767361367153311
LJ  -0.031588911840417865   -0.45874928120502378   0.27917351950019081
LJ  -0.20379627939245654   0.37612037824877037   0.35458163625970385
LJ  0.36827172924435925   -0.49735159865339817   0.35193520441818665
LJ  0.43933042335675332   -0.32192994988777657   0.30178050281211766
LJ  0.25281897986062829   -0.32483189052606914   0.39413669886446173
LJ  0.21919381641927163   0.41801213810067483   -0.49224907086187941
LJ  0.31456203057633964   0.026651032127020358   -0.031912135777518308
LJ  -0.44515457644757367   0.0053485054659514007   -0.01056486337981233
LJ  -0.45204909155005812   -0.062878690653413352   0.24044379560936485
LJ  0.4739430566213127   -0.1866533071542387   0.10159993424730146
LJ  0.38926570337182559   -0.37702210070884407   0.01807349999765526
LJ  0.023230108881232121   -0.37301216718415214   0.44014929261558428
LJ  -0.14680788004731621   -0.12143863476135432   0.27611899670435763
LJ  0.14829113510370051   -0.26488664611477392   -0.42797735857015629
LJ  0.12649323273571295   -0.24655355880618621   0.1244187008013401
LJ  0.36671714337456246   0.25939946245081719   0.015731252949478202
LJ  0.060778004321655595   0.1004727274539654   -0.49013900697235041
LJ  0.37084948720902244   -0.0022994615197043326   0.1531931005732971
LJ  -0.44015410108117953   0.26710702717059748   -0.055391802398467804
LJ  -0.37082464605998638   0.38109214825672372   0.1135274424426754
LJ  0.49141495347573327   0.35048850284262506   0.26671065346825212
LJ  0.054890912158362407   0.10159015634559929   0.09826178417439678
LJ  -0.035065652217762144   -0.090126817447554575   0.072537754431825044
LJ  0.034188065241314569   -0.20246437650800922   0.35161749541136506
LJ  -0.19570474187098694   0.2162268704783587   0.23374029763849105
LJ  -0.13184512508737734   0.052178458085585376   -0.4917398008657986
LJ  0.14584591198678004   -0.073786532744858135   -0.026094331744727767
LJ  0.095740322412614737   -0.036723341282381049   0.22118274702073226
LJ  0.035009814525684899   0.31894660388668777   0.42286534789429508
LJ  0.45679601194665703   0.18122529215744346   0.2111922698906748
