108
#Comment!
LJ  0.4352893429321984   0.14251407543947872   -0.35841555641298523
LJ  -0.21783068652717466   -0.40737035992574888   0.43249253019576861
LJ  0.21766868335976752   -0.43625846315368821   -0.26935172708234911
LJ  0.31225910270904073   0.31520160760260807   -0.39359021783055181
LJ  -0.029783124120536145   -0.48783221858514003   0.40524133137422186
LJ  0.23289719242453233   -0.35445546460842337   -0.47408683059364326
LJ  -0.07654484213367585   -0.12068546502565834   0.060091793304210953
LJ  0.061673011950502406   -0.39653676891440781   -0.060337275521803437
LJ  0.28851001532623344   0.40369613616487254   0.29530465899866265
LJ  0.29665336162611411   0.36368278266015491   -0.10646379230362242
LJ  0.46412242195879344   -0.4938800411107781   -0.085753474239606567
LJ  0.40216666327143896   0.48684281295903586   -0.31661993480607464
LJ  -0.45058728815881982   0.032330315764324255   0.29812461660249795
LJ  -0.27022362932874983   -0.0079400694930991233   0.38515556148752028
LJ  0.42650158108382308   -0.12178878903770374   0.44028111299306488
LJ  0.39171811585101185   -0.49617704659955036   0.47386860864918184
LJ  -0.37236165139875649   -0.17748958244263038   -0.488922917928023
LJ  -0.0084898980308300495   -0.31462714314864465   0.31890909656817529
LJ  -0.1129715145482576   -0.099238162712598832   -0.34521332304075747
LJ  -0.24261196726050385   -0.3186874678688994   -0.37297774204805728
LJ  0.078749035037397289   -0.039158209774604165   -0.27736778917139071
LJ  0.29210113920220315   -0.0028478126709195156   -0.32098362760110577
LJ  -0.046725586751374802   -0.0082388145716158073   -0.10463755929855631
LJ  -0.038230765685859404   -0.33717032184045281   -0.46567430709028007
LJ  -0.42011983605239372   0.28034092058899285   -0.41528016073445601
LJ  -0.25404775579837674   0.37239095893265112   0.37726480755511493
LJ  -0.39873105858097935   -0.49373107299487673   -0.38122573149300543
LJ  0.10866754509007874   0.41178915137594613   -0.3090712081423736
LJ  -0.33324053354060285   0.29378890787488671   0.21815471650140211
LJ  -0.1592740566717139   0.4670169972284699   -0.39208652786358561
LJ  0.013787711403745753   -0.39834109530851586   -0.28638817521350751
LJ  -0.071645285935076214   0.33875730820898431   -0.23818009836688417
LJ  0.18370809547700914   0.45302713468906802   0.46575808527511203
LJ  0.13409882514262436   0.14371680782223659   -0.36450346129945133
LJ  0.14723678837406406   -0.2186883195017299   -0.35167770892721117
LJ  0.32060928159607638   0.18730426167977857   -0.21562142998290532
LJ  -0.30581883792821485   -0.46251334553661322   -0.083694071281405685
LJ  -0.43122561917078372   -0.27667204156674635   -0.29359055918863808
LJ  0.45332434571269153   -0.17569022672716544   -0.11602792710141339
LJ  -0.22429847118904067   -0.30221430818920741   0.24636927064863054
LJ  -0.16184621987433873   -0.37240893934755942   -0.17433903681434013
LJ  -0.13778656001004938   -0.17672941522717572   -0.11192797255688594
LJ  -0.36243168522045449   -0.21805872403783275   -0.016124897489484688
LJ  0.20954372886186631   0.49975341302205745   0.039962887514874548
LJ  0.22990232264672664   -0.29202931339928112   -0.089392029948880819
LJ  0.48570539314200734   -0.34711768490898998   -0.49163426826381151
LJ  -0.38797508173691603   0.35378340567440247   0.031508255881909822
LJ  0.36033206755510999   -0.28324466258462067   -0.31090790357055659
LJ  0.219806269388824   -0.12109106820185077   0.47934232131619264
LJ  -0.1923371278988435   0.11328699821682299   -0.25772217040221235
LJ  -0.27756403228301901   -0.041142081477921602   -0.049568316904282386
LJ  0.45808898925572406   -0.092506888253133954   -0.37813063739460551
LJ  -0.066252992047145701   0.23015020588758092   -0.043449253421212031
LJ  0.087841435815548805   0.4125096114818268   -0.084262712853298893
LJ  -0.26900272400788028   -0.098868786082354887   0.17549020458322973
LJ  0.31887529130813252   -0.15126523367218953   0.058550240000985181
LJ  0.041122449365928286   -0.2296223807215628   -0.17883389700802041
LJ  0.25873962839106546   -0.12243409335441151   -0.17156386226120171
LJ  -0.05789481716976537   0.058305814002499498   0.20180477997023835
LJ  0.17974515200723795   0.056078518122280221   -0.14401914058805551
LJ  -0.26297871254962685   0.306100045741037   -0.27438529742225654
LJ  -0.37635397412979898   0.020615921061138593   -0.43254215806919249
LJ  -0.47274967748860824   0.30936581507373734   -0.22388819139308078
LJ  -0.33137405996196123   -0.10248353433615434   -0.22177061839744636
LJ  -0.28469778803275814   0.21615182604771543   -0.095948571999894927
LJ  -0.1381446644397617   0.30604534437362679   0.14561823599432391
LJ  0.012678833163205136   0.47167342415553704   0.085626480309847375
LJ  0.11013037031714087   0.088956371010588758   0.085831691226065474
LJ  0.34051858537959373   0.059074921061217554   0.19181152783527325
LJ  0.008193567555789965   0.15815919558723596   -0.22085101111493904
LJ  0.34527573837240544   0.19842341172225827   0.023276476913926928
LJ  0.36854363706812759   0.0075630383189657785   -0.025602547159126694
LJ  -0.43026514658424247   0.088124024475711632   0.0043685495107964913
LJ  -0.39311335161370159   -0.41900103347335121   0.33138186483080417
LJ  0.3934839421124669   -0.36665341394008033   0.30700691147574194
LJ  -0.4975213818302277   0.38960721001542797   0.32791314115939069
LJ  -0.27127212464740119   -0.49363617127046239   0.12830698361450049
LJ  0.031228099190270874   -0.14498789119566938   0.41461070087881247
LJ  -0.1858273843304771   -0.18442238067948716   0.44045278313779973
LJ  -0.11150206785968009   -0.47655594390192424   0.23719670614638749
LJ  -0.0033043871453417198   0.31825199402370091   0.28796824747422584
LJ  0.36736570557704129   -0.38210739311830266   0.058133854461453555
LJ  0.1481378119540567   -0.42615062002628501   0.28708712227973177
LJ  0.42682150252293982   0.41338062495269617   0.11907978869327253
LJ  -0.47530185615490989   -0.11738168494348782   0.11415234454047089
LJ  -0.22360427915552999   0.14554226934778081   0.074200387339852347
LJ  0.24970789977530514   0.080577887525325895   0.46802434851897445
LJ  -0.37870399564282908   -0.19585866102863567   0.32104268806203662
LJ  -0.4142085607985509   -0.38265446156386673   0.070370652898668284
LJ  0.098139526548897973   -0.14350619333735956   -0.0018003423590198719
LJ  0.038786861241384814   0.1055410670616377   0.36838034136912162
LJ  0.20781544256053575   -0.22452680873894992   0.31708108915026267
LJ  0.076255263081461619   -0.30960489126067714   0.11620003068856627
LJ  0.14823283421924893   -0.071986760187725263   0.20546430849865335
LJ  0.011556172846815932   0.30605802641844532   -0.43837450650925852
LJ  0.35848200156467391   -0.13714248261093831   0.2468215202568125
LJ  -0.46683469117100129   0.041497476162626556   -0.22718160402466536
LJ  -0.1376054437751732   -0.35436395276644189   0.054314372425277188
LJ  0.47920545316689489   0.21550235935728823   0.19026766838160231
LJ  -0.14936258498046778   0.41930490030385792   -0.060753440972678485
LJ  -0.17380626896097559   0.17158811451782924   0.32722432144675684
LJ  0.17630061130454949   0.30170710428888886   0.10169100829864824
LJ  -0.18607004609445685   0.2609416497813371   -0.45951105250037622
LJ  -0.094123859308054697   0.052198423691850897   -0.47861871254097965
LJ  0.0778258320966633   -0.01109646186354054   -0.46218537642806495
LJ  0.40862148574848428   0.18950169165843422   0.45036016731167217
LJ  0.21370835605310584   0.19032448508731167   0.29183279862262435
LJ  -0.37188056499433675   0.19082585457819579   0.41625867171729908
