108
#Comment!
LJ  0.4354403829001523   0.14238095410829535   -0.35827478041658606
LJ  -0.21789182372945257   -0.40748239348931076   0.43236824399649376
LJ  0.21752690282268428   -0.43629484766726501   -0.2695154309307416
LJ  0.31268392426194241   0.3151615765975363   -0.3935521118792602
LJ  -0.029706890299987122   -0.48793248091778768   0.40532435147770968
LJ  0.23308266861826168   -0.35439817224687875   -0.47431183939953464
LJ  -0.076441717516956026   -0.12071539411622   0.059760984836419936
LJ  0.06179251015209155   -0.39665591104591225   -0.060678841810917948
LJ  0.28877032409347353   0.40342484706774845   0.29534769750338224
LJ  0.29664735308844781   0.36357508851373638   -0.10653929031025784
LJ  0.46404939705863446   -0.49391951841901316   -0.085610006538800229
LJ  0.4023777284416129   0.48671924868989958   -0.31672217056309837
LJ  -0.45070558143995043   0.032323555873499631   0.29794507404815801
LJ  -0.27082244947751821   -0.0077031731509592805   0.38514642217086537
LJ  0.42640386049853068   -0.12171898523035468   0.44044478024687361
LJ  0.39148612477199796   -0.49620035152526915   0.4737545306742354
LJ  -0.37239162057675679   -0.17742318709722144   -0.48908625490000934
LJ  -0.008127826334704236   -0.3145363373047752   0.31934630058009922
LJ  -0.11268921140636425   -0.099193735191920193   -0.34540673266136734
LJ  -0.24260681846776053   -0.31863260476037608   -0.37292686587174761
LJ  0.07850332843623585   -0.03903757256945669   -0.27728310578829685
LJ  0.29229143172876904   -0.0033317998626720036   -0.32092679222800963
LJ  -0.04686878680358314   -0.0080421111352640354   -0.10495665059234646
LJ  -0.038092379874202879   -0.33709038141417735   -0.46583577896521716
LJ  -0.41996862097782739   0.28034841097882784   -0.41518057753587978
LJ  -0.25368820241191137   0.37231843729178188   0.3772054950743447
LJ  -0.39858704344524348   -0.49409996403773998   -0.38096889935731826
LJ  0.10837311897803546   0.41166497453342277   -0.30906422087945906
LJ  -0.33290887185408591   0.29382959977225959   0.21820594399108387
LJ  -0.15915577736597505   0.46668388147254147   -0.3917486539399862
LJ  0.013880222809698391   -0.39828733805996974   -0.2861557553391802
LJ  -0.071672937881554863   0.33844788321840974   -0.23793502020839777
LJ  0.18413546769085615   0.45322271532871616   0.46568621416061939
LJ  0.13383794298366622   0.14341860934380968   -0.36454703563203777
LJ  0.14710827599410825   -0.21859101384917778   -0.35169108676272276
LJ  0.31999309958259231   0.18693596519824535   -0.21526714023259974
LJ  -0.3058492065888439   -0.46263972391185404   -0.083675665870377877
LJ  -0.43137714406615718   -0.27646457058704765   -0.29363053737677414
LJ  0.45309572508925938   -0.17602821188575898   -0.1157453571563931
LJ  -0.2240973647613152   -0.30220710953029656   0.24638147962151766
LJ  -0.16167149916085791   -0.37259142109550059   -0.17408093155452961
LJ  -0.13777478275609314   -0.17668545182328355   -0.11221166677643286
LJ  -0.36223505917218829   -0.21815780236749829   -0.016299090070674396
LJ  0.20970687181506395   0.49967844996838706   0.039736877679930373
LJ  0.2299014210601113   -0.29197077366917973   -0.089480313325495636
LJ  0.48561433685353372   -0.34661340097835386   -0.49131766760499807
LJ  -0.38785749337801068   0.35389872981494247   0.031542193571119287
LJ  0.36042112211176203   -0.28342166431039295   -0.31055008981858717
LJ  0.21982391112430433   -0.12127814264994125   0.47938638444767467
LJ  -0.19225362240724678   0.1135639753899271   -0.25800683690306947
LJ  -0.27741053465215809   -0.041275813397082091   -0.049629309570761879
LJ  0.45780182978106215   -0.092362007136283661   -0.37804363931802543
LJ  -0.066346087835637765   0.23014996797415554   -0.043176416650237782
LJ  0.087548109991874873   0.41250357797948617   -0.08398267399186253
LJ  -0.26883581970305215   -0.098822548942962538   0.17559059821105927
LJ  0.31873455803430445   -0.15114523682619396   0.058448388345126646
LJ  0.040768739694842106   -0.22933464296878048   -0.17871896437888515
LJ  0.25911954930864567   -0.1222274578224947   -0.17146506150707383
LJ  -0.057853962474665996   0.058747036294929791   0.20175960170960316
LJ  0.17958861966761974   0.056016635536512392   -0.1441404390223355
LJ  -0.26267964382987885   0.30581813541814079   -0.27452840478137686
LJ  -0.37624883359186867   0.020870476543828721   -0.43244147373446479
LJ  -0.47291041684102664   0.30940279200990789   -0.22377382814625232
LJ  -0.3313385007991258   -0.10239228815716808   -0.2215260124329009
LJ  -0.28481814225564711   0.21629970771789261   -0.095826628436706918
LJ  -0.13802851851558662   0.3059189312816491   0.14553283248664267
LJ  0.012751705061968242   0.47223210515104486   0.085455440493074061
LJ  0.10965513171270501   0.089420576267889795   0.086033454311837884
LJ  0.3403718307352458   0.059145753414470675   0.19166113534197576
LJ  0.008330926390595475   0.15819843475752068   -0.22098254855425478
LJ  0.34521492506869839   0.19818403564121265   0.022934696973287413
LJ  0.36867752704143247   0.0077581462026896659   -0.025518050161201747
LJ  -0.430374573958972   0.088250087009940192   0.0041991608239651023
LJ  -0.39301668206519619   -0.41923741042809498   0.33148237272475439
LJ  0.39340681628730334   -0.36651428972398514   0.30659704640604651
LJ  -0.49771816894091492   0.38933504753125897   0.32771970922736132
LJ  -0.271464059615038   -0.49387894527274795   0.12814278331191639
LJ  0.031095350965827065   -0.14500057371825564   0.41447098444861241
LJ  -0.18577379586188744   -0.18472375093607854   0.4403587955624062
LJ  -0.11139523865328135   -0.47636978035549399   0.23704797669231231
LJ  -0.0035080091081426952   0.3184557620184908   0.28804311217782369
LJ  0.36728156113496918   -0.38204861328525241   0.057953053619230505
LJ  0.14837472138235117   -0.42604992195644653   0.28732456275411794
LJ  0.42688952736227104   0.41375329734084171   0.1190761584014321
LJ  -0.47534885369760477   -0.11738692093825234   0.11442498100302807
LJ  -0.22376984721509646   0.14544493140783801   0.074258105133447078
LJ  0.24994135815329224   0.080111510596828459   0.46847167442157001
LJ  -0.37884358238052601   -0.19586103084768508   0.32111937790659317
LJ  -0.41431522474289217   -0.38261125357467529   0.070504981321549087
LJ  0.098330987850992618   -0.14355944428763018   -0.0022501422728040451
LJ  0.038473592072965412   0.10548786670904961   0.36836104752406862
LJ  0.20767379467024291   -0.22447548193451619   0.31704012105515683
LJ  0.076685299451643402   -0.30949301195323831   0.11616593136321653
LJ  0.14790184573236742   -0.072188446668429385   0.20525352691261584
LJ  0.011642650820748357   0.30643948279353606   -0.43815943773606147
LJ  0.35853501761745427   -0.13722068111618499   0.24669175781436667
LJ  -0.46638901737971999   0.041348419602403222   -0.22738541327162165
LJ  -0.1381076505156878   -0.35439501003939422   0.054503840292321012
LJ  0.47927003496135728   0.2158111867531349   0.19039072255136805
LJ  -0.14970625745198901   0.41923849012206454   -0.060896525237629964
LJ  -0.173523544800608   0.17160613247386264   0.32758782516652279
LJ  0.17639995299658517   0.30198521953027702   0.10153081313522738
LJ  -0.18598486651894777   0.26116477936487281   -0.45992285444943753
LJ  -0.094340254389596909   0.052340777803488621   -0.47862205578088485
LJ  0.077839572644786817   -0.011207060320799947   -0.46223631552112354
LJ  0.40825374932143299   0.18946272877621181   0.45038205318311625
LJ  0.21385736354427859   0.19007633199177246   0.29174034641670599
LJ  -0.37187128249780882   0.19055190130849325   0.4165674508122123
