108
#Comment!
LJ  -0.38971243595534194   0.31940290897931561   -0.42012378270026024
LJ  -0.036463817285342807   0.43774133700884155   0.022376674900317504
LJ  -0.04910616345994942   -0.41617996575766858   -0.34634663859252246
LJ  0.11737815383310329   0.011918261290784639   0.19794944726748628
LJ  -0.45976116516066184   0.10712565293005889   -0.4671306272216198
LJ  -0.26238055425785556   0.36141669275611665   -0.0054665755451910256
LJ  0.48854197739337618   -0.16502302095851162   0.075245840572025324
LJ  -0.40140913334783823   -0.19138861293373971   -0.089353638430407015
LJ  0.09035075308499449   0.050796004639820182   -0.30343864701771184
LJ  -0.14931218213171291   -0.24650780325655763   -0.12999147525721377
LJ  0.086273428801381502   -0.025259231575881586   -0.20260485344233486
LJ  -0.1922479217063631   -0.10423160824335544   0.41792735268907055
LJ  -0.35408810247167272   0.25908919341097686   0.14127355987525764
LJ  -0.26537974816590176   0.0018932264341023617   0.2341370563498143
LJ  -0.053808815377036717   0.43208459278199657   -0.098269729699168779
LJ  -0.35940511924691104   0.061471198674635255   -0.47730203411325922
LJ  -0.24886671053660273   0.15726183093029514   -0.12017366105713376
LJ  0.2292639061142849   -0.12449212573378966   -0.2879257793964789
LJ  0.32490077630588476   0.29502809470357289   -0.16837100987416276
LJ  -0.097861863175531416   -0.0071362737588543824   -0.02666743649719993
LJ  0.15819022133988034   0.3479325047140906   -0.15122931040362839
LJ  0.15177780382373698   0.45811778065149972   0.19994337564180814
LJ  -0.36652045217152363   0.45855357464020918   -0.041410373565058771
LJ  -0.34523096103084139   0.46872670455233417   -0.16909189684977857
LJ  0.11017768662985102   0.34660540794387207   -0.34011517056298446
LJ  0.40401480272044688   0.24646444910476792   -0.36958764930120641
LJ  -0.32620480047717348   0.14730950634362697   -0.10702352704655169
LJ  -0.24902755368108456   0.098262766689524161   -0.066641960173233275
LJ  0.17001072344471732   -0.34715263825607195   -0.33213270217980301
LJ  -0.38536103170266661   0.44009036431320697   0.07338877462535294
LJ  -0.057576939643142873   -0.10220337875807098   -0.12572968703050866
LJ  0.14995176967912555   0.08292958465953397   -0.38002400713319362
LJ  0.39967372593071615   -0.49845387206468345   -0.33716224603583361
LJ  0.16841834544445577   0.37710915117986366   0.20042432459769627
LJ  -0.39816133587905539   -0.09263802068910254   0.24272988128984421
LJ  0.10621906334419151   -0.096211882396378776   0.35701859426230498
LJ  0.035946243244483207   -0.13078871265629941   0.079929386518413442
LJ  -0.06963818756247403   -0.30294903039614052   -0.13895031846334022
LJ  -0.11815447693386713   -0.066574472384850994   0.18396006193745904
LJ  0.41984421764314261   -0.085531824524863895   0.47255887886519954
LJ  -0.12453558113060566   -0.15211524363960063   0.28413703165797016
LJ  0.45308991963310236   -0.39868934736316486   0.24420389625773978
LJ  0.15807789207469433   -0.19678585822428932   -0.31963825309239297
LJ  0.35249001898551097   -0.1002372900244249   0.44609823758186318
LJ  -0.32736927452382447   -0.49131543304263281   0.072429426756738233
LJ  0.24374952577818232   0.054809961873478474   0.29885494886651837
LJ  -0.048623185085280594   -0.38359181793030728   0.37054451106935382
LJ  0.1560430918437429   0.17711645829250292   0.4940400498715809
LJ  -0.34771274545636943   0.35104615444137949   0.030573909386126797
LJ  0.037321876201307273   0.38104469522083839   0.066979193985728464
LJ  0.22016779735335976   0.28042279417720634   -0.4425798409591758
LJ  -0.048596698180977727   -0.36627113151976992   -0.22842475346204041
LJ  -0.44584305083214132   -0.08558730704095216   -0.18390844921767202
LJ  0.1198100692682051   -0.12520945012822721   0.42731757227942641
LJ  0.067942909845332022   -0.045655906954362849   0.088320831187040996
LJ  0.49687785962215736   -0.45996470786919036   -0.36198557469310566
LJ  0.37498435179766354   0.16204105461154786   -0.3283062713114005
LJ  0.31218529041971593   0.45950428225044598   0.13683124222919149
LJ  -0.2896752403226126   0.21517590956802024   -0.03557896665817388
LJ  0.19225501396317315   -0.35441270659496343   0.43574221827920556
LJ  0.35208160828412011   -0.38815246063572295   -0.093971231059321231
LJ  -0.082250753750591599   -0.23911798765894712   -0.49793441056832094
LJ  -0.36099542246456384   -0.23492180129065007   0.46327077445343767
LJ  -0.022131795878064998   0.047782916622273235   -0.1296682271028228
LJ  0.055626901009144088   -0.20464837149083193   0.42774969454763623
LJ  -0.083730904048027979   0.32390174197520366   -0.017191628447029553
LJ  -0.068651937368121113   -0.34855861817202793   0.027815122274952187
LJ  -0.33772189794701707   -0.29528267618759296   0.36675392829372966
LJ  -0.072683139753069712   -0.043715277749240868   0.48705564506091847
LJ  0.13828043563876877   -0.1897082429654266   0.33324827196029921
LJ  -0.26431713873093127   0.45248935934234852   -0.19002334543250596
LJ  -0.15423527179424806   0.27301449693073504   0.33306063472344982
LJ  -0.065751311359723341   0.070461549954353025   0.2563461130204629
LJ  -0.26685594015868552   0.25328933133715531   -0.20538756746638082
LJ  0.036890723356871498   -0.37268280102566326   -0.053704003034993002
LJ  0.34657836007986331   0.28745934974022047   -0.31250964512639556
LJ  -0.35771541479258051   0.38625026834401816   0.31557813002568735
LJ  0.47184602090716449   -0.36421924336603367   -0.47901172062580161
LJ  -0.061044752502822638   -0.075026479201722701   0.38440275298369914
LJ  0.37570660628859925   -0.25137123530505973   -0.10309031324893746
LJ  -0.4889741917941553   -0.255867140302244   0.36986829975810714
LJ  -0.29261231846712404   -0.42032851890556999   0.038308605028799972
LJ  0.42282566451476661   -0.15196945578861121   -0.19225279093779554
LJ  0.361397492986407   -0.47653761999156263   0.088447478363135962
LJ  0.26375099898552018   0.21620851158810514   -0.065818697540632409
LJ  -0.41843657370624282   -0.16817669587109574   -0.42521887606751058
LJ  -0.29949746483049444   -0.47591226943204989   -0.26736912759845982
LJ  0.4655439245366001   0.41311493880261468   0.24339772443230456
LJ  0.27896066722993945   -0.19901809127283737   -0.10806147035923712
LJ  0.20712239580029337   -0.3203724087840521   0.12605001002463906
LJ  0.36610612144490706   -0.24383850682040623   -0.33909744191762536
LJ  0.33441636713683526   0.19782340097472823   -0.20264902177865737
LJ  0.038209041841509202   0.27585091595724598   0.20078343666250817
LJ  0.3179240052147182   -0.4731079545877851   -0.31830078518204852
LJ  -0.040425082720471774   0.1461068393821903   0.41654867029705728
LJ  0.49303055232889453   0.39183060555783755   -0.27811640503417956
LJ  0.1589480982194674   -0.37515841160621127   0.075633863789762015
LJ  -0.26069893295481111   -0.14985008080943468   -0.37055987459348882
LJ  -0.13748162562131874   -0.32719582098162814   0.23839358981559389
LJ  -0.43559624121024343   -0.26501156366516332   0.45291314496846147
LJ  -0.21577678495249761   -0.22433072138543267   0.39268856422291482
LJ  0.30443511823755515   0.46190871900552916   -0.14799363041296745
LJ  0.35625629345303422   -0.091026689251888324   -0.32919249056889799
LJ  0.38899317500649816   0.39272078636503877   0.24572907659264498
LJ  -0.36721171747461523   -0.010220391939148971   -0.038722831317980939
LJ  -0.28896025559955391   -0.06097908575246011   -0.27381123538346358
LJ  -0.44093285818568878   -0.47737399507384387   0.33056684903137773
LJ  0.32186518565172406   0.19753345960011853   -0.36720304423981442
