108
#Comment!
LJ  -0.38963755249758764   0.31957385721178944   -0.42018286843897229
LJ  -0.036534169170281967   0.4378400096578301   0.022427597895046694
LJ  -0.049047626358502953   -0.41604366392921055   -0.34640869372559041
LJ  0.11733467473099074   0.0118407568760298   0.19791471826513921
LJ  -0.45970057731900832   0.10711319890297481   -0.46703982966586011
LJ  -0.26238520966884227   0.36130367074527514   -0.0055439511734861275
LJ  0.48846289030352497   -0.16498908643989235   0.075395313043483361
LJ  -0.4013218421780459   -0.1913858107098883   -0.089584695965948438
LJ  0.090293701928541581   0.050958707217940324   -0.30353986259016219
LJ  -0.14936562517903823   -0.24656166279646058   -0.13003553788439975
LJ  0.086302095617984118   -0.025323378215986198   -0.20269439160796254
LJ  -0.19234734363534761   -0.10413279140403192   0.41788792345025433
LJ  -0.35410973590249417   0.25905632645308341   0.1413151122964478
LJ  -0.26547528374582829   0.0018865147824218237   0.23407599338289495
LJ  -0.05382851063405434   0.43207416589456771   -0.0983967322889579
LJ  -0.359403094020674   0.061388235318665337   -0.4772832116778668
LJ  -0.24877093662271701   0.15732279834022228   -0.12015090166356619
LJ  0.22927308893744452   -0.12443272769885801   -0.28787940051772554
LJ  0.32493990032525139   0.29507819889449804   -0.16831257471199709
LJ  -0.097883636912791921   -0.0070356531756043186   -0.026660636525758549
LJ  0.15835186574757368   0.34795147701091672   -0.15122196845302366
LJ  0.1518197837644468   0.45805178508154581   0.19986608821812346
LJ  -0.36659932604889323   0.45844629338617976   -0.041499962764138795
LJ  -0.34532620009230197   0.46872962419979886   -0.16913918306918838
LJ  0.11003305303041548   0.34657212605665816   -0.34018636114064499
LJ  0.40409861408894304   0.24647830905305493   -0.36972067038139261
LJ  -0.32625336856063758   0.14738562345363823   -0.10713785996905245
LJ  -0.24908813979778685   0.098231479087744794   -0.066750585050891625
LJ  0.17006783095412467   -0.34710637534276723   -0.33222077162978203
LJ  -0.38533854379645055   0.44004816976656708   0.073620474903247815
LJ  -0.057560535207601411   -0.10216515927188403   -0.12567060229964308
LJ  0.14993357974820756   0.082828157849896028   -0.37993393620853411
LJ  0.39973289249347282   -0.49852175735698168   -0.33712898103779465
LJ  0.16827629871215324   0.37715333516177268   0.20048323394795706
LJ  -0.39820467061285209   -0.092604454768072636   0.2426933355085881
LJ  0.1060339909014552   -0.096372064348471065   0.35710858733597223
LJ  0.03595863488200781   -0.13072546347537634   0.079937165751329364
LJ  -0.069620467445836595   -0.30295846307604102   -0.13899567664176632
LJ  -0.11825835151047054   -0.06656960587951298   0.18409752602046162
LJ  0.41981741441625481   -0.085602023494118759   0.47245444048522961
LJ  -0.12449540238657433   -0.15217320814054822   0.2841143241314833
LJ  0.45309957550596647   -0.39870443208553513   0.2441067833685297
LJ  0.15811607786661769   -0.19681419734010835   -0.31951688605571199
LJ  0.35266209558152928   -0.10031819005790062   0.44607673007892662
LJ  -0.32738017457229535   -0.49136143933883852   0.072396755528954485
LJ  0.24388386314508037   0.054921641362474752   0.29860331398314677
LJ  -0.048730560892389162   -0.38356005771061352   0.37052416756255435
LJ  0.15599860865047641   0.17721649660574326   0.49410377496752167
LJ  -0.34760413272141388   0.35091380563880681   0.03058372592284982
LJ  0.037290230198007049   0.38096344659765319   0.066902644474314446
LJ  0.2202251327636911   0.28035697380210745   -0.4425298296552842
LJ  -0.048705628038381327   -0.366256640476813   -0.22849409847857891
LJ  -0.44589431623531517   -0.085652668006023544   -0.18386384768522551
LJ  0.11975726299161683   -0.12523427098598913   0.42726738765245542
LJ  0.067929110947450813   -0.045667394809782651   0.088496729988976217
LJ  0.49674107324515876   -0.45982572224547613   -0.36196149937294836
LJ  0.37489753056433384   0.16215134037564438   -0.32825432843618169
LJ  0.3122614115347882   0.45957444433025879   0.13685428354122933
LJ  -0.28960633737904501   0.21509015742177626   -0.03554132834128719
LJ  0.19215734408951549   -0.35448525725185276   0.43580781895873588
LJ  0.35216033421644155   -0.38813864095031714   -0.093947851623622056
LJ  -0.082303020187671688   -0.23915516447013474   -0.49798052116726627
LJ  -0.36103656483992819   -0.23492763603407812   0.46313598539022671
LJ  -0.022091938138528344   0.047857169856376905   -0.12968080462293685
LJ  0.055839742384428098   -0.2046598842062255   0.42761722329090779
LJ  -0.083835976292008882   0.32387025284221205   -0.017186581457656159
LJ  -0.068579773548398434   -0.34879062794311921   0.027874384600717745
LJ  -0.33767059887780787   -0.29526670348385603   0.36671062395935039
LJ  -0.072867855115538033   -0.043680143577897478   0.48699524432867858
LJ  0.13842327395465262   -0.18977749287548851   0.33325510789473323
LJ  -0.26439721734254951   0.45251178512809276   -0.18999040855915969
LJ  -0.15429643547177224   0.27280518293806144   0.33293272355303444
LJ  -0.065833322661892971   0.070379375262724669   0.25633824450730974
LJ  -0.266895526142784   0.25339696352930557   -0.20527546756598036
LJ  0.036818705917817982   -0.37254993667325503   -0.053779911688835606
LJ  0.34663440382438226   0.28746020679122702   -0.31253075996162538
LJ  -0.35768935907711208   0.38627302812069758   0.31560717577209202
LJ  0.4719583416522854   -0.36421573985120015   -0.47888802315835594
LJ  -0.061076513161477518   -0.074888634932571474   0.3844182358832387
LJ  0.37564555831756991   -0.25134161372684799   -0.10302860067667259
LJ  -0.48898094957836064   -0.25570894013764761   0.37000090289108095
LJ  -0.29251597087177533   -0.42029422046331361   0.038300327015857595
LJ  0.42286164440029383   -0.15193190715600441   -0.19222806371332171
LJ  0.3613531858648894   -0.47650370615273885   0.088557619367749779
LJ  0.2637891348714097   0.21637162532538365   -0.065562979764636029
LJ  -0.41837719960810782   -0.16807453413071624   -0.42516438501184312
LJ  -0.29954623396919461   -0.47604284592143453   -0.26743507932961302
LJ  0.46556971463140767   0.4129731994461644   0.24336049306432733
LJ  0.27916987280582017   -0.19896738236045822   -0.1080270547153399
LJ  0.20712740080463846   -0.32030365061700095   0.12613379960727253
LJ  0.36609571194248897   -0.2440347804924213   -0.33895683387639586
LJ  0.33438742622777429   0.19778468727485296   -0.2026706547126372
LJ  0.038054872483827315   0.27572579695030924   0.20081747134849892
LJ  0.31799927233247988   -0.47317178116953112   -0.31831115668355214
LJ  -0.0403762676190553   0.14620274696042893   0.41659666099790255
LJ  0.49313634721896837   0.3918016746819587   -0.27829426114467115
LJ  0.15891456268305576   -0.37508423367316701   0.075640716243838557
LJ  -0.26056182089957425   -0.14981027053898277   -0.370553998249954
LJ  -0.13754952401926698   -0.32697842932200438   0.23825208291153468
LJ  -0.4355006682074134   -0.26496092067042787   0.45291715101095642
LJ  -0.21594617865911556   -0.22448767748750673   0.39271782140216266
LJ  0.30447782559462788   0.46177283421864246   -0.14779327536345319
LJ  0.3562123857568727   -0.091148237328292692   -0.3292314503646967
LJ  0.38897738066803328   0.39281069232122878   0.24570972114788903
LJ  -0.3672397437227089   -0.010167399081588384   -0.038780758871615389
LJ  -0.28883198665577747   -0.060939386175193039   -0.27374488655329665
LJ  -0.44092749147630256   -0.47734329303774953   0.33062732090464575
LJ  0.32204870782547107   0.19743108558975678   -0.36710755670823664
