108
#Comment!
LJ  0.42957691694180689   0.37053306926313184   -0.016497725364666517
LJ  -0.36501228238141986   0.43247295397166952   -0.12127009145555354
LJ  -0.31377399788096483   0.27907498177776668   0.010654388297164233
LJ  0.38665562056421005   -0.46185983871672709   0.23392495308232439
LJ  0.21156439380060191   0.13603365576712351   0.21566711137894556
LJ  0.23427332831291967   -0.066721654977173292   -0.25113425174033921
LJ  -0.20004891771577746   0.377093371567647   -0.25976864624747581
LJ  -0.3313463431457796   -0.12366728910182803   0.20461823591785261
LJ  0.46630118122161313   0.36692740049082068   -0.30207300837480139
LJ  0.053395404055400691   -0.34403784012332445   -0.15021313432100949
LJ  0.26464796583907374   0.3086691842175186   -0.37470322756414975
LJ  -0.07496133920037526   0.49797056642241966   -0.35485730533764048
LJ  0.37256039948357383   0.18080981744900534   0.11503388794134482
LJ  0.47992199912424344   -0.27330013282035537   0.20475501522568476
LJ  0.057649316958154048   -0.32407284074280934   0.098524316592012495
LJ  -0.39050308879880569   -0.31780353385763738   -0.087634413823771004
LJ  -0.112153110258428   -0.19478073605178181   0.13830989387280693
LJ  0.018134678926323693   0.47308758391454525   -0.0041060219817771991
LJ  0.17185161357922266   0.26163364878666312   -0.068111162364227193
LJ  0.32552909538094926   0.31115319614456149   0.26971090127649749
LJ  -0.45483045200344435   0.0021682742228097008   -0.38722610289132398
LJ  -0.14837618176552198   0.011264879932649496   0.0013122868501302333
LJ  -0.041518620647901523   0.49326331525652278   0.18524725006402884
LJ  0.1423306174256467   -0.076994517554496822   0.17483611550446779
LJ  0.080263484543934394   0.4615362859266286   -0.22755427179085688
LJ  0.21884503153440252   -0.39444788425664956   -0.011204612563969055
LJ  0.35128610075334654   -0.076934640657493655   -0.097791886341648038
LJ  0.0066744518128557945   -0.31035002504672532   0.3533787912890623
LJ  -0.32515258524947166   0.42207106214273449   0.16355754647779169
LJ  -0.19589685581656505   -0.19229799066624909   0.3588248883025798
LJ  -0.31286035619139174   -0.12070272360400118   -0.046165541240047576
LJ  -0.004172513674615283   0.047661741458421072   -0.34748669074095473
LJ  0.19598586720853672   -0.19747923367370565   -0.053398132999894217
LJ  0.49954190345285282   0.2504550734022945   0.4699761204209783
LJ  -0.28628913332859063   -0.10032846221918573   -0.46334982618195164
LJ  0.32679316611141657   -0.052137416957581374   0.13330180335201106
LJ  0.39243197336039837   -0.26389190705877513   -0.022793293229243412
LJ  0.28669831529650946   -0.33536038463018647   -0.2004818740414486
LJ  -0.49227321671881158   -0.1187342716608403   0.05247607060867869
LJ  0.081267834628619598   0.28590923083978781   0.11475115902278218
LJ  -0.21197252981304734   -0.41234749110300239   -0.020994959143619558
LJ  0.37553232729094516   -0.047235061169875116   0.48759946433688811
LJ  -0.15458817685910842   0.39866093781443124   -0.04348105676077324
LJ  -0.41329874793825561   0.093915198051188725   0.11177415219219063
LJ  -0.079845151974869327   -0.11562026866657309   -0.39231371023163314
LJ  -0.372398168467931   0.4192137155575959   -0.44543600220221952
LJ  -0.093348486370782122   -0.080130939247343533   -0.18449393321242649
LJ  0.43497317377173894   -0.35582858000558731   0.40447204984533042
LJ  0.28554210451719381   -0.49389535516671779   -0.31665333551098501
LJ  0.15016752650848525   0.099744475861354001   0.038759625947749544
LJ  0.35186911559797529   -0.1400309380206648   0.32590455792582423
LJ  0.48808230866343338   -0.45871972658777399   0.059502422116649537
LJ  0.035807212006885233   -0.087422914018597295   0.013143834139122085
LJ  -0.026595921927075872   0.1870205010555839   -0.017313475911204763
LJ  -0.16772005735654164   -0.31625835987522327   -0.49198018909559665
LJ  -0.3714683047615599   0.26335929683603948   -0.24348510810614787
LJ  -0.18806041743660498   0.46736479164780564   0.48947057438647112
LJ  0.25419369173792306   0.40750072072084115   0.08218340417802017
LJ  -0.35975685949368724   0.051212196459974747   0.39764228968304305
LJ  -0.060674641384700648   0.30061215469033892   -0.48715396082403084
LJ  0.057839647744125366   0.074339089402794198   -0.18011535151970789
LJ  0.45238668533929988   -0.43567502065272468   -0.15714135836195986
LJ  -0.43323019796915258   -0.010702846971533873   -0.17157045268487073
LJ  0.33070679964244615   0.15952940855709999   0.4196896746963798
LJ  -0.34609123801825492   -0.37904777782764942   0.46101453747011123
LJ  0.32920397390776512   0.44617856209809703   0.46983870465949407
LJ  0.016366378382735792   0.26386585333876267   -0.30534133701302607
LJ  -0.48620289177031317   -0.21532623475632742   -0.4458180375306407
LJ  0.19759581440390575   -0.48709581548728814   0.3221435727259408
LJ  -0.47717811257606235   0.17477284175990582   -0.091311350673238867
LJ  -0.49972636910790513   -0.43990744114625979   -0.34805994635454829
LJ  -0.01726281968567504   -0.46847027944762853   0.45320224615736976
LJ  -0.34705423651974648   -0.31551176818757848   0.12371946855545411
LJ  -0.099317176333016621   -0.46916631132223657   -0.15996544337047627
LJ  -0.42775705262083996   0.20439748526311499   0.28842969917443229
LJ  -0.22547063328173658   0.15277959039022601   -0.38332368115646365
LJ  -0.27698289075261961   -0.4368839416085975   -0.34046870105222077
LJ  0.061732400633951051   -0.16608852014390077   -0.25339746106272354
LJ  0.28809981325159295   0.43245521036890833   -0.13005420842472618
LJ  0.26307197531689358   -0.3163019075201885   0.17681795151675506
LJ  -0.037995064857573216   0.042725087223947973   0.22869630193304938
LJ  0.47392073762509596   0.011417903562100037   0.27563573082621656
LJ  0.01127346364497076   -0.30215735083214873   -0.40707067161369931
LJ  -0.14339858784336987   0.28078521101754228   0.16593663867805897
LJ  -0.22067323655873416   0.14479089272866641   -0.12601419712554801
LJ  0.2001920653037654   -0.26328093208989328   0.40478792128668034
LJ  0.27931948977194304   0.10622848964532221   -0.18053011634117555
LJ  -0.19695190732202739   0.40048281257125645   0.3182384612109721
LJ  -0.17941068342216418   -0.26654122100372324   -0.27607289468726948
LJ  0.18060375344317306   -0.052808082045249595   0.39884681316157378
LJ  0.1671163017172895   0.29124830908570798   0.43825596393349031
LJ  -0.12278517831033962   -0.21994401828651017   -0.045694433801226571
LJ  -0.48038468207829527   0.42021379969884592   0.35460340545072006
LJ  0.012052541676915222   0.28659177290529436   0.30011259927694622
LJ  0.32152915612080274   -0.24608053673128688   -0.39874523733289724
LJ  0.18913829873839796   0.12081536255772887   -0.39759673406847812
LJ  0.43780639281785272   0.14706198782927218   -0.28911941172297606
LJ  -0.24240885555362762   0.10429447011248111   0.2308221280694373
LJ  -0.36043498454189482   -0.17679530848402938   -0.24399630498758157
LJ  0.41862082093188602   -0.16608541844126926   -0.24907583154766738
LJ  0.17761363081896109   -0.37490974021305934   -0.44584516075504982
LJ  -0.43919204337638307   -0.15831904468164854   0.37476068188709494
LJ  -0.26162180819400882   0.23445192444240248   0.43136098319223437
LJ  0.12535049203231846   -0.10785893571813623   -0.42486448065814419
LJ  0.027124169635183222   0.096399374603040738   0.39396825618125081
LJ  -0.38171556296878928   -0.41591136359927677   0.27636516831212837
LJ  -0.17374840012424267   -0.40077875476974595   0.32468210350356846
LJ  -0.023121901081867242   -0.1091772061443983   0.40107762687862192
