108
#Comment!
LJ  0.429380047456907   0.37045245345410532   -0.016708385856428275
LJ  -0.3646309058166588   0.43211376059597667   -0.12132106693468703
LJ  -0.31359827582341743   0.27905240409549326   0.01065072108669508
LJ  0.38642257886183168   -0.4619080907698177   0.23435766866597296
LJ  0.21144873377605378   0.1360988934454648   0.21591057674477868
LJ  0.23456641452045654   -0.066657034164964088   -0.25118982062956846
LJ  -0.20009425828605587   0.37723457738322747   -0.26006978087815752
LJ  -0.33161191978517196   -0.12334245544492138   0.20446761235576574
LJ  0.46604380779823679   0.366897408154084   -0.30211102145856372
LJ  0.053401836017645692   -0.34405167344868259   -0.15066099456404256
LJ  0.2645579014209386   0.30864020470796011   -0.37452348239775046
LJ  -0.074913417884623981   0.49786297622795417   -0.3551033224970539
LJ  0.3722807330693883   0.18076293186078479   0.11520006981631992
LJ  0.4800376474939832   -0.27303411074457734   0.20457593714574984
LJ  0.057925947150943631   -0.32377530236321267   0.098028530551361723
LJ  -0.39057263689133709   -0.31772004770144818   -0.087424748715946771
LJ  -0.11223249725277722   -0.19485951493600026   0.13810180432070274
LJ  0.018379487974007139   0.47275962588177195   -0.003838857533434463
LJ  0.17170455777125562   0.26168635414872848   -0.068150892511391475
LJ  0.32568307824887155   0.31111767908634913   0.26960215023697015
LJ  -0.45489216933428989   0.002247823289673719   -0.3871744922040688
LJ  -0.14820782187310377   0.011371483797885462   0.0011684571891497015
LJ  -0.041388688184675573   0.49312048243900858   0.18527021257047643
LJ  0.14200233401651538   -0.076788306618765276   0.17499807479819554
LJ  0.079934575677312866   0.46138202865076111   -0.22765395301505623
LJ  0.21918109467789496   -0.39429921955281566   -0.011286166707060686
LJ  0.3512541702379483   -0.077169792029391754   -0.09782458714645581
LJ  0.0066119944444085   -0.31047340110756594   0.35315399736321118
LJ  -0.32505084724263328   0.42205621562765427   0.16333285221341465
LJ  -0.19619465807868933   -0.19205650209247721   0.35879207215805869
LJ  -0.31261907396174637   -0.12049384082544599   -0.046349419279633111
LJ  -0.0041176474420269987   0.047493637692833164   -0.34738197100898222
LJ  0.19598496424854922   -0.19714444642314616   -0.053293579438092688
LJ  0.49949801634913238   0.25088908368628582   0.46976247032451179
LJ  -0.2860965527780559   -0.10022082202651231   -0.46298707773381942
LJ  0.32673321912508568   -0.052252585096815539   0.1335090714034218
LJ  0.39289149038059645   -0.26442890972127525   -0.022994317159795503
LJ  0.28665860005218247   -0.33543759072208501   -0.20016762221471252
LJ  -0.49260430199772898   -0.11847744810573831   0.052696787211445301
LJ  0.081145500324301803   0.28597651746254243   0.11492700788001133
LJ  -0.21206422756153434   -0.41201290740713975   -0.021160815707679807
LJ  0.3752501168099453   -0.047363368415974355   0.48772132994064182
LJ  -0.15441843612313544   0.39856161077436547   -0.043304070887387636
LJ  -0.41319858353801225   0.094020280552831265   0.11189854742423593
LJ  -0.080179682770245925   -0.11543845384055311   -0.39218639362465418
LJ  -0.37255472359069453   0.41901124211002527   -0.44534863131095626
LJ  -0.093510274257907436   -0.0803854128429667   -0.18459488877693753
LJ  0.43476349740854736   -0.35551108870474735   0.40451794105725714
LJ  0.28584791423102851   -0.49378134876498414   -0.31666581142535893
LJ  0.15038304717226805   0.099487131975047535   0.038743641534134558
LJ  0.35193768433633921   -0.14018080886450798   0.32583021102109644
LJ  0.4878943456499053   -0.45873938275233095   0.059394658976363701
LJ  0.035704874810443217   -0.087521395528441209   0.013357118265633221
LJ  -0.026694554831101568   0.18658782245773717   -0.017352403906668264
LJ  -0.16747712749102162   -0.31592834729647601   -0.49200789527218836
LJ  -0.37140015884760369   0.26351248262655941   -0.24321049576251025
LJ  -0.18820669635035059   0.4674442937511879   0.48977032853336211
LJ  0.25407237456853504   0.40712556938813965   0.082322250780070078
LJ  -0.35987250561190726   0.05124265675765028   0.39763460863511035
LJ  -0.060735063876694119   0.30043276197132868   -0.48708650688480032
LJ  0.057866549361880598   0.074405565451876113   -0.18003072463191208
LJ  0.45258643493901413   -0.43574622397557522   -0.15711573498081108
LJ  -0.4332267469315591   -0.010694508839886903   -0.17153632142850378
LJ  0.33079155675436733   0.15940865911608371   0.41979918839865571
LJ  -0.3462627845609893   -0.3789759821557771   0.46105919734997747
LJ  0.3290721021804488   0.44597049090663071   0.46925369855953397
LJ  0.016473817235569951   0.26390044477839952   -0.30476433023580313
LJ  -0.4860573978495028   -0.21518371212122228   -0.44611306215987495
LJ  0.19799465266203067   -0.48729303579931887   0.32185871802414956
LJ  -0.47760062326857988   0.17442538247275849   -0.091361239380572529
LJ  -0.49974505987703838   -0.43990898957765251   -0.34807884804839906
LJ  -0.017090281399233374   -0.46875326340906442   0.45292859566779176
LJ  -0.34698797743857024   -0.31540803386452282   0.12382598405097459
LJ  -0.099259147383414972   -0.46934432916896202   -0.15974260055970951
LJ  -0.42772781792424797   0.20486910052491758   0.28869417372905415
LJ  -0.22530224608953847   0.15267500682753249   -0.38332765622209786
LJ  -0.27689891052388038   -0.43678756085790171   -0.34017187722057923
LJ  0.061659923975069607   -0.16610333813139613   -0.25375633737882858
LJ  0.28817140053109014   0.43250921069599518   -0.13011435727609405
LJ  0.26292661508959114   -0.31649529305380203   0.17657795268643739
LJ  -0.038108637359683679   0.042694353690105394   0.2285541842253038
LJ  0.47387600369923866   0.011336732368374524   0.27556765150537199
LJ  0.01122278927101872   -0.30216487285298227   -0.40675428018165205
LJ  -0.14324002969180191   0.28102102831502507   0.16581342519392261
LJ  -0.2205676681688428   0.14474133582874305   -0.12589181156674356
LJ  0.19993897475148609   -0.26330275607194231   0.40485700508072564
LJ  0.27943135545051762   0.10616303660781307   -0.18024222940537299
LJ  -0.19707453804706535   0.40030285549294659   0.31841053284217863
LJ  -0.17968814828455984   -0.26653381205363869   -0.27584451859546227
LJ  0.18046733755201752   -0.052528768993683174   0.39864222837866997
LJ  0.16708473765982529   0.29121687372485916   0.43821110232718702
LJ  -0.12275648681622439   -0.21986493333325768   -0.045530275537555252
LJ  -0.48016853805655935   0.42012699599587028   0.35416420461337206
LJ  0.011960777996567924   0.28668534863901357   0.30029781078412843
LJ  0.32138782107496605   -0.24590666415161708   -0.39849448465692289
LJ  0.18925337717799584   0.12088366284613003   -0.39760912824782518
LJ  0.43799531943438585   0.14696417512551596   -0.28948669693678702
LJ  -0.24228322811798542   0.10441138358732796   0.23126592322697542
LJ  -0.36058504314707768   -0.17641701551688616   -0.24379562317607067
LJ  0.41871722789834603   -0.16638141364269024   -0.24940490101177021
LJ  0.17757595415964794   -0.37471775651277495   -0.44604805680728876
LJ  -0.4393062002465723   -0.15826251199794522   0.37492641312976238
LJ  -0.26137827493669075   0.23458926241614514   0.43100330765010814
LJ  0.12524573188060878   -0.10810595299879794   -0.42480191683695517
LJ  0.027135292627071747   0.096296050708800207   0.39382819381660994
LJ  -0.38158072419531419   -0.4159486976625586   0.27644358123062979
LJ  -0.17354466164145385   -0.40064096846900898   0.32440549528532553
LJ  -0.022839510122880234   -0.10931536218644688   0.40106520149119224
