108
#Comment!
LJ  0.072938066169351251   -0.072163751425238953   0.25672495190106154
LJ  -0.04836930399727904   0.25481196567949388   -0.46395767409870681
LJ  -0.29998134148984135   0.29545685248093745   0.41046528679517053
LJ  -0.051040294146526284   0.45652299914895211   -0.059049932678284768
LJ  0.20410200831473752   -0.20798966799826957   -0.098245368033515482
LJ  0.23908150644575193   -0.08717508625368349   -0.41141622338511308
LJ  0.14122934771318008   -0.1151522285504092   -0.3826618787085273
LJ  -0.26724713662603161   -0.079736077331604538   -0.4892652444945737
LJ  -0.22258737568271886   -0.49880154424590256   0.035801670808040725
LJ  0.40581333053637325   -0.46103250110702654   -0.15504121357828432
LJ  0.29648590553048532   0.17360352472430271   0.13012624934270936
LJ  0.42951570929627053   0.48725714237861029   -0.37828637824987338
LJ  -0.41547223988624471   0.20640109576476112   -0.12183161313779936
LJ  0.47061057006134932   -0.16668294464525876   -0.16344880403449411
LJ  0.054334136113690451   0.39475984780184298   -0.025937546012787163
LJ  0.24052652831170418   0.041859978249073192   0.39059132980763284
LJ  0.048657524535473971   -0.18915806438368987   -0.29528681371507681
LJ  -0.16702304831871922   -0.016405782489271631   0.48451977731314017
LJ  -0.22495557504212849   0.27242049854321343   -0.097425984370825169
LJ  0.42175014027428209   0.041569364030437581   -0.48427935932099136
LJ  -0.35392438062345943   0.021919319213558958   0.14301278740673526
LJ  0.36289744853472033   0.33737196172684875   0.326439914128139
LJ  -0.49043212238369155   0.29742300350167478   -0.43328680100765249
LJ  -0.42085047899900241   0.24888343157296275   -0.40218504116078024
LJ  -0.052355646017164192   -0.058685953622772   -0.35417178455330506
LJ  0.28637274652021327   -0.33982728447026617   0.2159938569487998
LJ  -0.27002596057760486   -0.2465541270337871   0.030817236111660151
LJ  0.44075535197911797   -0.43627593665840875   -0.37653790867252135
LJ  0.30742692028559487   -0.1703399447056595   -0.45320761183182845
LJ  0.44372900955504863   -0.19709806700106558   -0.38245121789429132
LJ  0.41523936276994849   0.45532173473657006   -0.17515913657250898
LJ  -0.44106060072691827   0.40012795687840141   -0.11794977167284781
LJ  0.48042819685657162   -0.040157433802290088   -0.46395428971005204
LJ  -0.34208936330855977   -0.41350740565892091   -0.14172762741380088
LJ  0.40035000680154914   -0.3411773475887388   -0.37745843808857071
LJ  -0.31998579882977429   -0.026603801675349936   -0.29393523802561888
LJ  -0.27964720460848891   0.2604750568569944   -0.44886696411722216
LJ  -0.014559358101483698   0.012726905595762887   0.46449961020407604
LJ  0.17537394013705709   -0.37259336918954294   -0.45531966747339098
LJ  -0.24646418248903007   -0.3636709279014898   0.42875049635932322
LJ  0.47517213587269419   0.078855816398230277   -0.061096157701499183
LJ  0.24339118073409194   0.01509165351506783   0.094750740158445354
LJ  -0.48854483541812582   -0.47487509520767868   -0.12770462544013084
LJ  -0.36670088705558379   -0.084063831036361725   -0.0093378294619503848
LJ  0.2965061025464038   0.41578862499377939   -0.095410330984822517
LJ  0.45357735671108124   0.36773786864955366   0.070305493574435357
LJ  0.2480178139528586   -0.15009581238278977   0.055285001932863877
LJ  0.32011974505938195   -0.22394056061511217   -0.28284028272256073
LJ  0.12283463786472142   0.42825926998109404   0.3505120853666549
LJ  -0.23503218486420122   -0.010065791456441606   -0.1728810276858623
LJ  0.087969022122925858   -0.24040271591758894   0.31096440126791997
LJ  0.4610694202481615   -0.36716903985966631   -0.1229442691962121
LJ  0.25570096389042235   -0.30897834273239178   -0.4461267211800527
LJ  0.42572047699770393   0.32639160446176485   -0.19585167264089862
LJ  -0.13781992202873405   0.11644078765298767   0.38362757112592627
LJ  0.31486041128994779   -0.27679086601392705   -0.14395729589535045
LJ  0.2868657128756123   -0.32400148073802737   0.46506627886540064
LJ  0.39602436071120151   -0.13084812291428596   -0.1506546906170543
LJ  0.12565022900638131   0.010461099334536681   0.18499229872275053
LJ  -0.19802632083111199   -0.37371450909314929   0.48939100134779456
LJ  -0.21155469381986117   0.19242216784288455   0.48405245975822792
LJ  -0.19789020074175823   -0.17945996517326843   0.41035615264228109
LJ  -0.11711811556069651   -0.37101867861079774   0.49101580631390712
LJ  0.10103060859162807   -0.23104715559246286   0.48700873987769489
LJ  0.22848089698991428   -0.37512176574493111   -0.079338849831002867
LJ  -0.03027956379275077   0.0100779866846527   -0.41070617061380194
LJ  0.17140291133911054   -0.30066414079520504   0.39435745285359552
LJ  -0.0042499148911841955   0.12696259918687477   -0.45083956723072871
LJ  -0.3980915054715784   -0.29345993092863309   -0.33002136100591989
LJ  0.11709975677783439   -0.47462442265949373   0.44556083550413622
LJ  -0.12908305260720743   0.2427919247719815   -0.072344195568167277
LJ  -0.29425898087067126   -0.49694581642842872   0.37926129397603242
LJ  -0.088679040902336276   -0.37555701836619682   0.0022955412617995923
LJ  0.15132138301621859   -0.2923276884058908   -0.3053900324904032
LJ  0.36269456330192551   -0.084890895469032918   -0.09316579577028275
LJ  -0.28834627266862839   -0.18232961175196394   0.38642895959414586
LJ  -0.15891870993704912   0.026412353760910251   -0.1684748276427657
LJ  0.056848619908531649   0.36426914147651585   0.048447042185984668
LJ  -0.29423510864864089   -0.35562349632242807   0.16826623477045571
LJ  0.10294760519742134   0.31649771999023596   -0.0094562236049933069
LJ  -0.10888772264324321   -0.13282786266333169   -0.1324353897154576
LJ  -0.46007126939500587   -0.1187406929237025   -0.074955124425804043
LJ  0.31959350798134073   0.18563463027506064   -0.41452508045018654
LJ  -0.0034520985617822381   0.19283042500839365   0.48035248251564483
LJ  -0.09766686622556367   0.049606372250449032   0.23652476638258862
LJ  -0.1936920876062441   0.19581114751028617   0.26878922145362921
LJ  0.24877389814241566   -0.40767428107692383   -0.22463916450010896
LJ  -0.2783183511590907   0.45683414886495   0.092539576691377287
LJ  0.19062335316426418   -0.23632017389956333   -0.194925322618762
LJ  0.38649738167487058   -0.45564170260504239   0.12805792259319226
LJ  -0.38412882632723433   0.43695338496162089   0.48749576059021432
LJ  0.15829307287336752   -0.39584570654098311   -0.14322359816371863
LJ  -0.20765826119283803   -0.068640465865097811   0.42017765994751172
LJ  -0.40924227645757028   0.08325077095365041   0.36344197066707573
LJ  0.24520626897780279   -0.14051502295496685   -0.10216571898885594
LJ  -0.23915255151501694   0.31180287699931047   0.096841763650360471
LJ  0.21839615129972756   0.46000638487770312   0.44425800508668706
LJ  0.15543445399848188   0.35484554629333054   0.46163531600481095
LJ  0.078774848627754329   0.26433360812916362   -0.33404979875569019
LJ  -0.30986399543880883   -0.040232294064971544   0.097282485697527968
LJ  0.013407700432545199   0.48964124199952802   -0.31953394079397873
LJ  -0.41891437731459591   0.33731196244612399   -0.24742226507568363
LJ  0.2612657607961687   -0.1417521830259014   0.48081762088961183
LJ  0.41611020660513248   -0.0086069598390405254   -0.23919635679967916
LJ  0.073968957456960735   -0.32230306882414778   0.22755472071144148
LJ  0.29241771537391426   0.079651531614304105   -0.16221617161577936
LJ  0.20546406663729419   0.44264473010404776   0.0018697247483652104
LJ  0.27079838999554906   0.30937439640279385   0.112847835405422
