108
#Comment!
LJ  0.072913997218000279   -0.072017944414367235   0.25659917746495053
LJ  -0.048180058158756409   0.25485363841287567   -0.46396561853893187
LJ  -0.30012968978937055   0.29539717257737064   0.41034587387484872
LJ  -0.051400473776328948   0.45652560047894525   -0.059092442697767429
LJ  0.20422815016256271   -0.20805546169295425   -0.098294245626597734
LJ  0.23893614357688295   -0.087121723332973813   -0.41135512376043448
LJ  0.14122517142788452   -0.11513186389888119   -0.38252726889055766
LJ  -0.26708839077364621   -0.079878066940199888   -0.48943098090629339
LJ  -0.22252884719806335   -0.49863006142778155   0.035686263834995499
LJ  0.40566216971004854   -0.46087706124845818   -0.15487514051615181
LJ  0.29663723485509869   0.17348277014328858   0.13026556249559809
LJ  0.42944834674681592   0.48718602651512416   -0.37819805041823229
LJ  -0.41550473590465725   0.20632791211136367   -0.12207813860471266
LJ  0.47032538176599265   -0.16658726287077033   -0.16330251172282406
LJ  0.054277663343660305   0.39485208259794391   -0.026073458535806573
LJ  0.24080737150783757   0.041581049572035865   0.39045429381343383
LJ  0.048831213883678469   -0.18901604814829059   -0.29534656613281468
LJ  -0.16692694029050192   -0.016306124465623351   0.48461794731437963
LJ  -0.22473851449022506   0.27241459736862256   -0.097442206950608498
LJ  0.42190715309605287   0.041525736689692068   -0.48424947482343861
LJ  -0.35373772072995541   0.022167209246447109   0.14317496439810071
LJ  0.36301656780312935   0.33733771854351668   0.32616932151889477
LJ  -0.49024405112043684   0.29736170988922156   -0.43311110223336902
LJ  -0.42072734743051637   0.2488023240505606   -0.40216124366515421
LJ  -0.052075217902398781   -0.058674303928688686   -0.35410884143161492
LJ  0.28625500324878578   -0.33978817900719777   0.21585444716970903
LJ  -0.27001275358987115   -0.24667567944692173   0.030621179808470983
LJ  0.44080421660942315   -0.43619217558471973   -0.37652667081997909
LJ  0.30737373535444956   -0.17025336419858839   -0.45361775914629487
LJ  0.44385596074923656   -0.19704557340283302   -0.38220281442399651
LJ  0.41494394508126886   0.45536713315402355   -0.17496467387465126
LJ  -0.44086945473285788   0.39999441036481603   -0.11791177273751878
LJ  0.4806735701209271   -0.040084655331390835   -0.46371924167213319
LJ  -0.34194561629473591   -0.41360968079938154   -0.14188380348637505
LJ  0.40017549064094121   -0.34138449986000841   -0.37734128412035506
LJ  -0.31984766004007553   -0.026670540909079402   -0.2936991056821377
LJ  -0.27963967885848573   0.26052979739654342   -0.44891959178196894
LJ  -0.014688058659889707   0.012857441585370591   0.4646360889168315
LJ  0.17529336835379561   -0.37273456744818229   -0.45515451081001201
LJ  -0.24647617882629425   -0.3636204367468393   0.42860838909718257
LJ  0.47497598601249164   0.07897725954788494   -0.061274449394959039
LJ  0.24350670818182041   0.014952436847360853   0.094608945175838108
LJ  -0.48876597982476833   -0.47495994193243452   -0.12778824558974233
LJ  -0.3668645185977869   -0.083983872630748718   -0.0093310782095704023
LJ  0.29641721643364083   0.41579897473287875   -0.095438918926481348
LJ  0.45352046114626821   0.36795358023246494   0.070486704109185672
LJ  0.24776468669546134   -0.15008212462465251   0.055503096243098848
LJ  0.31978390500182041   -0.22377634610775005   -0.28293747930451685
LJ  0.1227912040541385   0.42829102081546511   0.3506606473176076
LJ  -0.23493504698319742   -0.010350143336125392   -0.17308408356550115
LJ  0.088048315921897324   -0.24040131892495775   0.31105438171183575
LJ  0.46087397940212588   -0.36727138461130443   -0.12317758965325612
LJ  0.25576995507342754   -0.30866156831680774   -0.4461075172000471
LJ  0.42565446503066928   0.32638961766818736   -0.1958710141439631
LJ  -0.13769759455415301   0.11657482343049934   0.38362391622256609
LJ  0.31461615788538411   -0.27690302636050729   -0.14392698677166588
LJ  0.28670618579837825   -0.32384598499312328   0.46496743701465987
LJ  0.39582099438868229   -0.1310959544437478   -0.15062869193500894
LJ  0.12580891951537879   0.010520883930452484   0.18474377495780905
LJ  -0.19813828843477777   -0.37363757082482552   0.48941618067062731
LJ  -0.21180509622121865   0.19223605926248136   0.48425226576297475
LJ  -0.19774451713660596   -0.17951334292672785   0.4104539184653766
LJ  -0.11732044452268238   -0.37113106212176283   0.49101441430324211
LJ  0.10121562407633181   -0.23071464237266015   0.48718058404607734
LJ  0.22881685534115603   -0.37520308068905112   -0.079164233472368783
LJ  -0.030205886043306748   0.010084437071613748   -0.41064451465056095
LJ  0.17109573566412858   -0.30077780918041075   0.39418402473348624
LJ  -0.0041705416967878607   0.12698467491977866   -0.45071922807645182
LJ  -0.39817165592256659   -0.29332930493023129   -0.32996709504297211
LJ  0.11718981516736197   -0.47458043385472143   0.44543912795011215
LJ  -0.12917098448818468   0.2427609382880716   -0.07232952739512491
LJ  -0.29439339545935012   -0.49702262134941944   0.37937406050458461
LJ  -0.08863721272755995   -0.375664788666912   0.0019119288656195845
LJ  0.15117977868089463   -0.29199841988284858   -0.30557140221210843
LJ  0.3627568221447619   -0.085243089932342503   -0.093100236593809921
LJ  -0.2882172414255959   -0.18232249001721348   0.3862673913289274
LJ  -0.1586848376559879   0.026434925367993366   -0.16847730154964838
LJ  0.057109067896097244   0.3645938268551201   0.048548717412481367
LJ  -0.29417023230412209   -0.35567012895277855   0.16847520617767664
LJ  0.10317491582080961   0.3164783153571239   -0.0094276850082505824
LJ  -0.10902475756069219   -0.13274033928908349   -0.1322843570874081
LJ  -0.45984690859542815   -0.11876163348619492   -0.074911875410764245
LJ  0.31965664058911353   0.18550311218760815   -0.41443002766336984
LJ  -0.0035889589274962939   0.19271574898169272   0.48016958413238064
LJ  -0.097502941833393683   0.049680048660542125   0.23643964013439789
LJ  -0.19396360813609886   0.19585286294618812   0.26888816358839374
LJ  0.24886235892749003   -0.40768640479177004   -0.22466555584427947
LJ  -0.27839903377498504   0.45668849306088055   0.092324838401933909
LJ  0.19057359461285581   -0.23640501186216484   -0.19485731127556108
LJ  0.38671285658858862   -0.45565036579767404   0.12810572486250152
LJ  -0.38429076303783949   0.43694051355903452   0.48762779293196573
LJ  0.15842759582279581   -0.39598710571463636   -0.14314779183041493
LJ  -0.20788202394274924   -0.06866487279104401   0.42002968956126135
LJ  -0.40926781818958541   0.08319406426058315   0.36311864284952899
LJ  0.24518315665435519   -0.14049512208493325   -0.10186047112072179
LJ  -0.23900290969390978   0.31200873893155878   0.096589989267699156
LJ  0.21834243285572683   0.45989489399332889   0.44421973148813826
LJ  0.15550041616061522   0.35479397993983397   0.46163553991442086
LJ  0.078868386880483102   0.26432772053995868   -0.333873960514393
LJ  -0.30983880423673366   -0.040174010538937197   0.097110652310861648
LJ  0.013747003280688969   0.48961230895873975   -0.31958930528374258
LJ  -0.41887934687025802   0.33724780301254292   -0.2474672844551955
LJ  0.26122036080024502   -0.1417812344511501   0.48081460802122611
LJ  0.41598078394909771   -0.0084517175013202953   -0.23926964166832002
LJ  0.073818594121843384   -0.32232367335645767   0.22764187111662346
LJ  0.29217110066142954   0.07953217661738779   -0.16193576981647509
LJ  0.20531497736320869   0.44271347760807839   0.001984567432690096
LJ  0.27077286749120921   0.30931517050816915   0.11291300604315475
