108
#Comment!
LJ  0.48853371398607082   0.41606591045751223   0.36271763165564203
LJ  -0.25845769529591311   -0.25070715710210711   -0.4648046034136577
LJ  0.38817986506027441   -0.45278422922749573   -0.47874896018012092
LJ  -0.24682629367708256   -0.42353038350320171   -0.33748026259783009
LJ  -0.14335717246031182   -0.47253108229254565   0.43659425287367071
LJ  0.031276954032741562   -0.32956058447180803   0.44886449028483105
LJ  -0.045477118846432019   0.49930510478749851   -0.3141061657834831
LJ  0.057566823837242403   0.43954048535050438   0.48694323002116996
LJ  -0.056310195581929907   0.40330054635267354   0.29502617972290257
LJ  0.18601441630568383   -0.42228204711749079   -0.41721150241980509
LJ  0.097109386978005099   -0.26893307636264635   -0.25541283679845084
LJ  0.24597350169631255   0.38815743038528633   -0.4137073054310173
LJ  0.32650959571652866   -0.27023581135242414   -0.29212907129885574
LJ  -0.45860280534777942   -0.080143553212550581   0.48706356788096
LJ  0.4661551731962793   -0.11979340692996743   -0.23799513672254152
LJ  -0.17290725741199819   -0.074226475572426773   -0.38479064825054843
LJ  -0.268661118750469   -0.0021394924302281203   0.35857251497085385
LJ  -0.058094023980260374   0.12874113982300023   -0.22990670197013299
LJ  -0.10380281419476363   -0.052763635650015239   -0.11836913456300716
LJ  0.038712607737423556   -0.17775828598177262   -0.048691188719668946
LJ  0.16639963591650447   -0.16755627985171961   -0.46878321071356982
LJ  0.34144992385942508   -0.024360277641979722   -0.40359332083851318
LJ  0.15955981040994976   0.072550806223738079   -0.30758804931106759
LJ  0.25504414080976939   -0.066698393369967746   -0.20657489679046437
LJ  -0.47648105798344847   0.0030138674117228099   0.29462719480931426
LJ  -0.40133164591748777   0.17565406303727349   0.40879617832374587
LJ  -0.41889645992994901   -0.41307360858816627   0.49932175925741235
LJ  -0.42717304334184386   0.068001850284117815   -0.36484566083740033
LJ  -0.25062482593514163   0.16944948133888915   -0.38798353878924347
LJ  -0.12323613661292972   0.30908920079338387   -0.48123671907925031
LJ  -0.33472614829174685   0.35161444251276669   -0.49636905957755845
LJ  -0.045429028868142526   0.34552066620817679   -0.14169354407247928
LJ  0.25708153291182329   0.17636199831386001   -0.46718511823990705
LJ  0.2683999838031062   0.30749698983035478   0.37292102923175013
LJ  0.055997638720039926   0.2511155557998111   -0.38159669841549598
LJ  0.47790877376624918   0.27030720420936094   -0.42777473197617871
LJ  -0.49104988496125795   -0.32424725964089596   -0.25503252819565281
LJ  -0.33578521816046381   -0.16193276295188025   -0.2901834243777684
LJ  -0.31872225472606802   -0.36109119980865861   -0.13379818845274252
LJ  -0.33096878058641555   0.40660872632336742   -0.14512232418954454
LJ  -0.1549392268755673   -0.47432456485309266   -0.03071126146539295
LJ  0.15024841814617207   -0.39193207738636354   -0.049725258763928665
LJ  -0.057222942595484105   -0.25356375905893219   0.10523672075519833
LJ  -0.19426394176604891   -0.47967712238927812   0.18219954882322231
LJ  0.13679158338412148   0.42644243540028354   -0.23153379904468505
LJ  0.31983953820878352   -0.44805879560607365   -0.19596895306755974
LJ  0.28886868811958422   -0.32650822588313011   0.22481318415380741
LJ  0.49106976292826476   -0.48857179501064074   -0.091940568229046601
LJ  -0.49863959082351117   -0.24276051348054881   -0.064191210033135729
LJ  -0.25813501800562338   0.025043626419373258   -0.212436736922232
LJ  0.43906414780996916   -0.023397955434232953   -0.061866757065815854
LJ  -0.26564856560307648   -0.17051235467682754   -0.034365901911247582
LJ  -0.0057431519825601029   -0.099362325035548926   -0.28020754574535944
LJ  0.083342807139359931   0.010502322358161013   -0.11901557809837249
LJ  -0.10063825506534971   -0.25868667215566893   -0.16535344374971098
LJ  0.19700946914916584   -0.24379777873943168   0.086092422795305892
LJ  0.30125313056992836   -0.22471738850468018   -0.10219187795954361
LJ  0.39046143800381083   0.12646529172772242   -0.23861089631177579
LJ  0.025566268051888129   -0.058412015617311221   0.13664639217611355
LJ  0.20735991624847916   -0.011698783704251432   0.055381123089492584
LJ  -0.4201918927011814   0.23816075512493609   -0.22384173742528515
LJ  -0.22578591395805894   0.23087789314771942   -0.11876703166720452
LJ  0.49812747498375753   0.2753161595376859   -0.034215012219900282
LJ  -0.37194891955500964   0.07132160307288013   -0.066361869332843187
LJ  -0.0041144470538542199   0.38972306921598809   0.061221082055053382
LJ  -0.20889939962021511   0.36311621809592376   -0.29629559565340596
LJ  -0.17641654909184326   0.30026017705424951   0.12827167576113827
LJ  0.27046397554153212   0.44276208695072528   0.0075610954565561213
LJ  0.19571818855380335   0.22795326819973047   -0.19176707805076773
LJ  -0.47106533529742617   0.48848972831525111   -0.30654286287394578
LJ  0.36193407362619467   -0.36177599940243038   0.024634021692853166
LJ  0.32038791341685552   0.17473353335645067   -0.03939220482108427
LJ  0.39190194235232334   -0.49467266719960484   0.21117896934991146
LJ  -0.2667108570272495   -0.26585908089856175   0.16196792433789281
LJ  0.45390321521437271   -0.24534686945552178   -0.44234110437081459
LJ  -0.36608058471598282   -0.44037524971823439   0.29364028086558047
LJ  -0.3602931788741921   -0.46158936497956438   0.058681817424370272
LJ  0.073190228389730105   -0.39052247555358571   0.24607280620372993
LJ  -0.13576900114237345   -0.259275962891162   0.33872889476188678
LJ  -0.28072803850118394   0.37266342988067053   0.30149882984074955
LJ  0.1369622267172414   0.35772221284571581   0.20811422011178091
LJ  0.46247587354860537   -0.3365028307475692   0.358535436331957
LJ  0.25879891929831056   -0.31910868732314501   0.42344771309975171
LJ  0.23419207545791754   -0.49849785678896436   0.34216430145310917
LJ  -0.48958367988927676   -0.27556109795504652   0.15545501069754114
LJ  -0.4004919415319067   -0.080786648116673881   0.11744426878574594
LJ  0.38716502255736346   0.1298240355389281   0.34967821662137355
LJ  -0.38692550565947365   -0.18935592318177136   0.32252885994884434
LJ  -0.1843471666178286   -0.049216647996927244   0.1348666518559582
LJ  0.069383423916868497   -0.16013404581625551   0.3158118003732322
LJ  -0.030183341146126481   0.042101431095626279   0.32077929019170315
LJ  -0.030543272324474242   -0.08890073443169122   0.48377101138869488
LJ  0.2699334756307693   -0.038397680532842274   0.25299150707157764
LJ  0.38630610048603792   -0.1343426721869018   0.10851952213442988
LJ  0.13586260339888634   0.033335872356066269   0.42773758688098218
LJ  0.38446875393597879   -0.15036171640078275   0.37858163578118187
LJ  0.47557633057958548   0.12947665753370941   0.13303506411908902
LJ  -0.43738451728088573   0.34843640669508369   0.16952569838646228
LJ  0.36048794826882741   0.29419578328112123   0.16437870297324561
LJ  -0.32055589876406104   0.12902726497819905   0.18483208626830838
LJ  -0.077792929940339747   0.10402853533423705   0.0064811943216659491
LJ  -0.01522282180678949   0.19012840392579583   0.18402855596799669
LJ  -0.17143302773124264   0.18958457635885131   0.36268429093779514
LJ  -0.05479850559464905   0.10148986437056276   -0.45159792882807875
LJ  0.12297586491649892   0.21143033606947495   0.0074591144845087996
LJ  0.37954559262690718   0.34958969048404748   -0.23165665590345133
LJ  0.04664105412654021   0.24475264295536742   0.40087684566676057
LJ  0.17426747534493281   0.15206456106611477   0.24460999713243051
