108
#Comment!
LJ  0.48824455425140417   0.41605007432677599   0.36281273733156427
LJ  -0.25813005658289429   -0.25072469388995661   -0.46480991867370963
LJ  0.38829045125103351   -0.45267035720401649   -0.47851238785949307
LJ  -0.24686769266670366   -0.42365552295459263   -0.33742871745583891
LJ  -0.14326432177861237   -0.47254191026673042   0.43666818484227149
LJ  0.031355519328058065   -0.32975611908778218   0.4489339493782723
LJ  -0.045577956479927961   0.49909771829615363   -0.31395537431548803
LJ  0.057597319092264468   0.43962745349384047   0.48676914117556908
LJ  -0.056088757658093243   0.40334109959464454   0.29498087939226525
LJ  0.18590007244575407   -0.42219387045576745   -0.41715801042217282
LJ  0.097068660316549343   -0.26914065076762478   -0.25533491800648894
LJ  0.24609981432047701   0.38816812352255026   -0.41381732141251848
LJ  0.32658390199661269   -0.27008416343049868   -0.29196382215476213
LJ  -0.45863740557014138   -0.080100861584083569   0.48686299391248106
LJ  0.46619928210429468   -0.11985985655673505   -0.23812747389591671
LJ  -0.17285876823300031   -0.074183701891087334   -0.38468427985290776
LJ  -0.26851018056947135   -0.0025000961047976977   0.35852701384801139
LJ  -0.058142734772153246   0.12866465419361345   -0.22993871914717909
LJ  -0.10386400785752689   -0.052848976696487825   -0.1184219544030041
LJ  0.038571091922356811   -0.1780619494812847   -0.048637426273514077
LJ  0.16618665511720748   -0.16755953837417931   -0.46852753995622676
LJ  0.34123257042142596   -0.024223799228202801   -0.40376448442955326
LJ  0.15969595587460081   0.072709987869584769   -0.30734966321982987
LJ  0.25509447468999363   -0.066777031116430657   -0.20676168268457296
LJ  -0.47673159971078355   0.003037095777330647   0.29465531188696675
LJ  -0.40133670441015373   0.17572783168393113   0.40883139011490272
LJ  -0.41897175252849878   -0.41330966706368005   0.49927973972519685
LJ  -0.427095344694291   0.067810406979913848   -0.36469446985057907
LJ  -0.25084308316692433   0.16947351717072051   -0.38783308643246495
LJ  -0.12331390867076196   0.30923173245403951   -0.481263549613618
LJ  -0.33458380587981712   0.3518618928835785   -0.49639045026331036
LJ  -0.045447323908839342   0.34559751804518163   -0.14164777952334959
LJ  0.25692346899470897   0.17631324875255283   -0.46734494648010821
LJ  0.26880969252909126   0.30742985995189398   0.37306248953380178
LJ  0.055855770712776448   0.25137178001772281   -0.3817386437548565
LJ  0.47805815275103131   0.27037479936093395   -0.42760790363080042
LJ  -0.49124797239224677   -0.32416246897992951   -0.25529427815984651
LJ  -0.33572881036413577   -0.16219291874117114   -0.29007713330449747
LJ  -0.31883836728645853   -0.36109451358550454   -0.13384253566106918
LJ  -0.33103367271579137   0.40658187209184554   -0.14509699938010384
LJ  -0.15478539828678986   -0.47423459389092809   -0.030972476986266623
LJ  0.15011614954175023   -0.39210167861356499   -0.049692110079138527
LJ  -0.05712082593984677   -0.25352908071240354   0.10531962057254857
LJ  -0.19435655578621153   -0.47968505107036485   0.18253649138061842
LJ  0.13675642998561716   0.42621065591360807   -0.23178001327855666
LJ  0.31974841547248434   -0.44819308324070606   -0.19611879016725234
LJ  0.28885961767695245   -0.32626502110501804   0.22483783956374551
LJ  0.49131553173093445   -0.48858520740873668   -0.09213595631339172
LJ  -0.49877203276497845   -0.24258981636022955   -0.064335100203051554
LJ  -0.25821705628844849   0.024946163319097443   -0.21220641984474212
LJ  0.43892996524025651   -0.023436588420147862   -0.061669736829292082
LJ  -0.26574685405676951   -0.17061804826840596   -0.034395305839211784
LJ  -0.0057799560599113087   -0.099284090793758759   -0.2803562503694314
LJ  0.083339328229063495   0.01049094688915388   -0.11905262964130965
LJ  -0.10079373131301153   -0.25866486137704503   -0.16522043848291829
LJ  0.19702587916225153   -0.24375398576548929   0.086174628389637853
LJ  0.30124688024181701   -0.22463506390992805   -0.10226196570563881
LJ  0.39044431548851227   0.12646430856699103   -0.23878703629408699
LJ  0.025419460389738385   -0.058682571990028042   0.13673151079116197
LJ  0.20756902230598437   -0.011815036874393677   0.055502398857231322
LJ  -0.42000706292622675   0.23819738526211884   -0.22398781889216265
LJ  -0.22566459262699048   0.23075248129239656   -0.11879616206569746
LJ  0.49837434291380944   0.27502325277000877   -0.034481364108517119
LJ  -0.37168660490632699   0.071531849389900509   -0.066353920936974592
LJ  -0.0039695442291236152   0.38980562302223865   0.061451549076015632
LJ  -0.20889123356203304   0.36269603163166603   -0.29611637027843513
LJ  -0.17652365037432396   0.3001191105003207   0.12797595392709182
LJ  0.27035678029141019   0.44257116423050957   0.0074995488154207327
LJ  0.19588838599773581   0.22782080188469092   -0.19180394945754961
LJ  -0.47121199938943226   0.48846012451807574   -0.3063705173940281
LJ  0.36209959326604818   -0.36158918177586463   0.024409200267137828
LJ  0.32050810570693827   0.1749761167373661   -0.039361000381425593
LJ  0.39186002835382072   -0.49450301858056139   0.21130413972719625
LJ  -0.26649050192330476   -0.26573636521673993   0.16184432339995369
LJ  0.45392628681887931   -0.2455125179229177   -0.44247100792274263
LJ  -0.36646382792230092   -0.44031859961900166   0.29376935248920516
LJ  -0.36004159777286326   -0.46146273455203884   0.058908861035496571
LJ  0.073204747278311097   -0.39055510505848884   0.24616128189660613
LJ  -0.13556903032263332   -0.25897910106096483   0.3387429212121984
LJ  -0.28066055004750112   0.37267351318479014   0.30163815592932447
LJ  0.13678005512768548   0.35762052576366793   0.20781589145510182
LJ  0.46251666678919656   -0.33621948788023248   0.35865054418677123
LJ  0.25868759011879805   -0.31912814644221105   0.42358020431131871
LJ  0.23432099991887792   -0.49851519129479066   0.34206097090806054
LJ  -0.48961779546027706   -0.27540050802231525   0.15538915105146808
LJ  -0.40054240820328113   -0.080613200515899416   0.11740816448579915
LJ  0.38714082241442488   0.12960375288413822   0.34977739279879111
LJ  -0.3867128369040595   -0.1891898665690124   0.32235499328782363
LJ  -0.18457320468200258   -0.049107219836610497   0.13492497954843324
LJ  0.069571756109319677   -0.15996689230922248   0.31597665136717196
LJ  -0.030291610848453974   0.041956656711419182   0.32056261431589
LJ  -0.030460544054113085   -0.089102214940249766   0.48390781583184528
LJ  0.26990659391269256   -0.038283733728540319   0.25298174200320922
LJ  0.38627261025074389   -0.13418379036379879   0.10853227441237213
LJ  0.1358700596921375   0.033713039471317617   0.42771636926425805
LJ  0.3843513751848468   -0.15015104700275411   0.37841087980811461
LJ  0.47555754302866149   0.12927028011302716   0.13342125585162581
LJ  -0.43742706938782955   0.34822365584340609   0.16960362933621909
LJ  0.36061192449176688   0.29409308153386721   0.16412786243855476
LJ  -0.32072244429840779   0.12911167188737052   0.18478638526724211
LJ  -0.077929251603995359   0.10410206511545574   0.0065052798997308151
LJ  -0.01525307562809463   0.19023087792748836   0.1836403082240857
LJ  -0.17169551317118825   0.18955280779714959   0.36269005306437863
LJ  -0.05475926429553659   0.10152834541716525   -0.45144847813623706
LJ  0.12306091352861487   0.21161019372044168   0.0073152277205537266
LJ  0.37934436730001186   0.34951184752114378   -0.23161402683107746
LJ  0.046634500923361813   0.24482333642103074   0.40073276525073398
LJ  0.17446739991851457   0.15207203626284002   0.24474930213617827
