108
#Comment!
LJ  -0.30541866361158004   0.30067786401929469   0.42555593552913379
LJ  0.25915948901102848   -0.19001173418024939   -0.49408172375099524
LJ  -0.28157446515195361   -0.23612352194609743   0.25438308832324208
LJ  -0.25561444182731502   -0.44098915509865177   -0.27109615004457494
LJ  -0.39469426091895488   -0.49832695335327365   0.34699610476339143
LJ  -0.24252876353131736   0.12300271676275723   0.31117095851179422
LJ  -0.27214279083696047   -0.28091726872716216   -0.39256810245215928
LJ  0.46215137378694071   0.47729722990763174   -0.13320308231580799
LJ  -0.3267953503334427   -0.45312236694104341   0.36596348749078866
LJ  -0.49149209929118493   0.0012543802531396551   -0.24318437534917445
LJ  0.28155669056139543   -0.31190941606573158   -0.17225319123090435
LJ  -0.33541912166558335   -0.26294207325272845   0.01090959052475223
LJ  -0.22511570538639877   -0.10162176771871319   0.093741556745619167
LJ  -0.082480953213018363   0.19807907154263243   0.27578041741197501
LJ  0.45510603871504218   -0.18886428197693675   0.37252345429745976
LJ  0.33130696990992609   -0.22666691595261834   0.043546957182110442
LJ  -0.17579080355624951   0.03491253180597919   0.37412945486526133
LJ  0.091590118362359002   -0.010135922556190774   -0.45711595401777227
LJ  -0.38046658722449472   0.36065271894231504   -0.0014704220416444148
LJ  -0.16332804518860886   0.26869451025199093   -0.27947244671795185
LJ  -0.091623816120383769   0.37471057376672423   0.23760987487364893
LJ  -0.2072682585508383   0.19320949315561606   0.36004166995183662
LJ  -0.44872931251944154   -0.1039625231748421   0.0073408805580376007
LJ  -0.25658718076531079   0.06648290691674226   0.38591755364377828
LJ  0.037415207616300641   0.28424506294218832   0.12403452996759386
LJ  -0.28896216140508063   -0.4798923642783105   -0.037037757455596079
LJ  -0.25183093995772726   0.29324503236087091   -0.0027135599670650508
LJ  0.095614461805204692   -0.32742968581422649   -0.041843099754551361
LJ  -0.12294908544973136   0.16598280604546187   0.42391282032411221
LJ  -0.45100876364328024   0.13243795315585941   0.21053077832793707
LJ  0.081177514183926075   0.40691588241773308   -0.11321577401184438
LJ  -0.3245650348557102   -0.41228973334977176   0.076029904679728241
LJ  -0.13685997763513136   0.24749140502858957   -0.48722123453233268
LJ  -0.30664875390675006   0.29576690071664435   -0.062856707833022746
LJ  0.067936310779335998   -0.42680694406283687   0.20582827689848304
LJ  -0.27303224906897255   0.22409328767798134   -0.097645214766941088
LJ  -0.22587416293551504   -0.48016533670332595   -0.0951315750367345
LJ  0.43402064492089026   -0.47354594047054699   0.097125851915190367
LJ  -0.32527731638411983   -0.22652782579738806   0.17795717271837846
LJ  0.47462995568319777   0.38257493763352773   -0.11050211085937529
LJ  0.0034803158612903662   0.4405251670785475   0.36907889761145984
LJ  -0.16926242728450691   -0.33855849717904529   -0.005568390691027561
LJ  -0.091671229533116017   -0.080705425217382332   -0.10955140354035409
LJ  -0.48374947002177904   0.35854585551966489   0.18171212206059725
LJ  -0.14155187291215793   0.36083173761728149   -0.13327349965643587
LJ  -0.3466496016101317   -0.32609232015032263   0.062145508668647417
LJ  -0.090015573867334761   -0.47367484594275056   -0.24165569976447013
LJ  -0.0090011384454461267   0.38541703264634791   -0.17898196325308882
LJ  0.33003592785738284   -0.21050861234420271   -0.08511956387971345
LJ  -0.23064104275345956   -0.084143892906375695   0.23800315931190158
LJ  -0.093634478133390417   -0.30402432650424949   -0.050195909701729928
LJ  -0.3862674805620081   -0.21128226377684126   0.080330015863149556
LJ  -0.32526805961009664   -0.43147915003893167   -0.099195609365333726
LJ  0.44867724136765785   0.24573323949783682   0.064121527488491037
LJ  -0.3587399560431152   -0.4406876572964416   -0.3538991198503883
LJ  -0.31700386063246916   -0.17275285925376677   -0.066460814522045789
LJ  0.37889691176124474   -0.27002250471987999   0.15105380362203372
LJ  -0.14308976393039238   0.326398285937129   -0.22171719210559152
LJ  0.19498751248182197   0.22501866770943396   0.45155917992050454
LJ  0.21110626448120942   0.11366268061065948   -0.17153093867859726
LJ  0.33410941748059636   -0.24322026704770683   0.28297295379269327
LJ  -0.47391489074037663   0.26165277272824633   -0.33072434893608116
LJ  0.18419917179672418   0.17303986825847847   0.00437821487592676
LJ  -0.3903436995230401   -0.15320409935772011   -0.0090378210490649428
LJ  -0.035745088053641037   0.24985175563016235   0.22312337704991217
LJ  0.29544539387228602   -0.35638303174199759   -0.018732956013482554
LJ  0.21753532678673343   0.40747045652626057   -0.47380388240644983
LJ  0.15729979033995686   -0.27899820067965742   0.024771375554795413
LJ  0.17026061250939231   0.40048949615440921   0.45367502672901505
LJ  -0.21106884557540262   0.30479935652876999   -0.097857015415303117
LJ  0.044101190491431894   0.45686753207488606   -0.16735914709323771
LJ  -0.25722791397116024   0.36694548986997283   -0.042766688960936397
LJ  0.16230906794180044   -0.18586484325662186   -0.043206917448832198
LJ  0.21930330825200273   -0.27051629398726429   -0.12265829003779859
LJ  -0.015244737803352958   0.21655395229633226   -0.25827990992101563
LJ  -0.35994743514694943   -0.028369929858806472   -0.16271977631051956
LJ  -0.065350399100506426   0.45083028286524168   -0.19720810543256378
LJ  0.25840649439715485   -0.086155564685455946   0.059173309046645792
LJ  0.27987773149847273   0.15792667980831973   -0.14561016445109246
LJ  -0.17933312089328263   -0.40380155183319544   -0.35414156362846122
LJ  0.042031924322477293   -0.22076018767052166   0.43476519459459312
LJ  0.13864708122862757   -0.37008952286148666   -0.3035460510455239
LJ  0.27435138724378   -0.041270176413776991   0.45814404030398997
LJ  -0.019418152333085723   -0.39216637665265724   0.17678247308049092
LJ  0.44073553560760936   -0.29665943651782378   -0.33213893096100588
LJ  0.071776357238367436   0.29665393455871286   0.25479544308548463
LJ  0.10552054885782097   0.37456981421419117   0.29694680273629814
LJ  -0.061349558022790976   0.045650920060672902   -0.36018675032081138
LJ  0.1195518009765901   -0.058158815129403331   0.46420572755593797
LJ  -0.20224233620056473   0.081911931281484773   0.20797680561745649
LJ  0.036487995913345582   -0.32496798286022993   0.40762784279655301
LJ  0.33031989261482292   0.053439633138793567   0.20698547423256292
LJ  0.19090237280007791   0.2977514444406808   -0.089805089688060516
LJ  0.12763578879874288   0.095136232816159169   -0.35013767137828927
LJ  -0.39002977040100451   0.29865652642577867   0.21172453402958749
LJ  -0.48940499198967974   0.037847893677020662   0.025395706932376562
LJ  0.4314070656968193   -0.31158077039309928   0.18338243102198598
LJ  0.2938242619472366   -0.12875190850016446   -0.16273917648994315
LJ  -0.48139260807482342   0.3872051250649815   0.25736122935412026
LJ  -0.47490852900208158   -0.28075013049218894   0.10581142153012883
LJ  -0.058496545656449531   -0.48689002414958976   -0.12651482627560512
LJ  0.20468779241214269   0.34228392464304302   0.0041469452612438139
LJ  -0.41444999860002352   -0.032917219091964121   0.26596345141452327
LJ  0.27723239304460695   0.19601690305802358   -0.04319615283821001
LJ  0.043509920930722659   0.17957556532391084   -0.086241274217837935
LJ  -0.42791560866034128   0.064902467167529593   -0.23520852481039892
LJ  0.24583634991304565   0.19478104663294593   -0.23267109915653172
LJ  0.0022543259776715637   0.24698948278638871   -0.33288959321016359
