108
#Comment!
LJ  0.36347177081917298   0.44864627775189858   0.096904352225962914
LJ  -0.35935660274381748   0.20497954003764876   -0.43114252568773936
LJ  0.22446171832303216   0.39655881450271213   0.079292310963724882
LJ  0.41688815075867031   -0.0066770540215177684   -0.19329823176361646
LJ  -0.41650915540515554   -0.075269955463331512   -0.045758314659768679
LJ  0.41113866762111606   0.36747557112994961   0.31384005041003604
LJ  0.42118555071988462   -0.43316581126748921   -0.2784051650058918
LJ  -0.23427657939398844   -0.26336298021456794   -0.24633020236300471
LJ  0.11968933192768622   0.45365715450249477   0.18412534199663189
LJ  -0.2357510279825831   -0.035824506904033125   -0.44251101887892208
LJ  0.13774003459106385   -0.26254751323710812   0.37248111284469099
LJ  0.21325499815331247   -0.20499424053701332   -0.05362012364581141
LJ  0.26734927444958134   -0.061237703790594115   0.49961625851006586
LJ  0.32058349745067355   0.37020582363300319   -0.45065426213424647
LJ  0.2084521745917135   0.32260179386721166   -0.096022618146500829
LJ  -0.41412075298871881   0.12493159900368808   0.099010872878203801
LJ  -0.34469272990961386   -0.19292454499835621   -0.13965200371201475
LJ  0.032384895074840443   -0.49383500497412242   -0.013660801525795683
LJ  -0.30720796406802597   -0.30015363808114415   -0.34637606456496278
LJ  0.18182808502632455   -0.32035462740074289   0.25426727105959163
LJ  0.31616534452842898   -0.35033530138223118   0.13725354223783631
LJ  0.23034389096896823   -0.098922471069244594   -0.055833009858773326
LJ  -0.36904209891007078   0.1089777892863842   -0.45244104450786632
LJ  -0.060156900550277101   -0.34133831039714879   0.1775822263795071
LJ  0.10510217192990655   0.4938599759240147   -0.25412945867966735
LJ  0.4329816387357826   0.35343477705520815   0.41601341180755891
LJ  0.15440811099847693   -0.24529932744924229   0.072833413215836612
LJ  -0.48212204770343003   0.007385779258370237   -0.1966319977678451
LJ  0.3362131599869233   0.42189862912242426   0.18199633735397017
LJ  -0.4119208348933644   0.36555367101558056   -0.015727505890188436
LJ  0.22822809659416171   0.20110443273577011   0.22318336954772042
LJ  0.12130010795932111   -0.21691983404745843   -0.47415233913771998
LJ  0.40769699485749727   0.15675332858450725   -0.37794719661261628
LJ  -0.18151738443294724   -0.18781757206941613   -0.11214681335534774
LJ  0.024835575541837768   -0.28054509910655989   0.16419489321323574
LJ  -0.37784438703893825   0.42553961753932262   0.32335912060565186
LJ  0.11671109880027099   0.16973556206964899   0.45010447711110085
LJ  0.37683632456985783   0.28912181723100494   0.25773205337899741
LJ  -0.44046371444379534   0.35171310038316067   0.33308786085263686
LJ  -0.16537603471781351   0.38624717170936773   -0.42711665086899575
LJ  0.44533820257159379   0.49273526600855749   -0.31185248597536319
LJ  -0.24663075364757103   0.43391923573358188   -0.13733834448267104
LJ  0.22403322181574559   0.11133741235083697   0.058166713169925666
LJ  0.25429736429058969   -0.092626744919799525   0.34220226203263571
LJ  -0.38518829414607925   0.099555786576543751   -0.35333938317812519
LJ  -0.15717183063118395   -0.39935449065214496   -0.47697009038383748
LJ  0.10585864398627347   -0.28395823919761254   0.46856069704360376
LJ  0.46489315432762124   -0.49285782198778877   -0.20730132612813368
LJ  -0.095265689170643916   0.18027561088947278   -0.27805635796968564
LJ  0.34730001404290867   -0.28459269173246676   -0.11577113605597064
LJ  -0.012718578336341546   0.029696407125775096   0.35639910867467423
LJ  0.42460771548489901   -0.12107769355122945   -0.12049026920872406
LJ  0.026331190434383124   -0.093355160987879424   -0.33771476484653973
LJ  0.13326263051688048   -0.076253654526349565   0.16860788659231254
LJ  0.31622987319045132   -0.46921171982020221   -0.30719067546520001
LJ  -0.092415900368913506   -0.37118464857134659   0.11061802507862911
LJ  -0.47124252732150718   0.388268559190662   0.081049001167403767
LJ  0.20057627765038372   -0.37330607731158377   0.46233971711696947
LJ  0.2480523446972   -0.41752447617201321   0.32290605284563501
LJ  -0.29885566629891391   0.15575541894116299   -0.28664738136396667
LJ  0.39339755628734174   0.41962792313494768   -0.38018686066291973
LJ  -0.23505379786417696   -0.41138888700728998   -0.11706419927627289
LJ  -0.21220232917075818   0.47119856569759327   0.42596832226652565
LJ  0.20755724528790953   -0.15332399625126067   0.23738346520505335
LJ  -0.41427190179602402   0.020513670787101181   -0.4733529444793248
LJ  -0.26884483762630668   0.313839498334472   0.4559164577507665
LJ  0.16006497479802609   0.17657164096263769   0.29885260977413147
LJ  -0.37952799603724874   -0.029662919845787866   0.25776671951774371
LJ  0.027121225296462336   -0.43563882178380864   0.1051707366605405
LJ  0.32243974194097863   0.15041271871813189   -0.32855647508604552
LJ  -0.066573776767873377   0.11722926960281699   0.35511469311226518
LJ  -0.23445851454537014   0.35602361421261453   -0.08969352396934592
LJ  -0.34646459471942903   0.10490808109698546   0.40399687037442461
LJ  0.17945134233581841   0.45833989980512319   -0.17646354981535919
LJ  0.01715033261566639   -0.43504439231343561   0.23930554737624804
LJ  0.49980340910362397   0.43848542339079116   -0.080567865131514121
LJ  0.49011208026219233   0.15520177142350169   -0.015460116931768384
LJ  0.060370322413325843   -0.17310144537931699   -0.14537468698057104
LJ  -0.43568942070069766   0.15768304316098011   -0.07944589534742158
LJ  -0.09944305665145757   0.31271438623710157   -0.05890757109275014
LJ  0.24605074635510674   -0.082049326298803599   0.14355664079197925
LJ  -0.33006578772632472   -0.0094777108972887644   0.48556647557416349
LJ  0.061048338433316578   0.23746736118968337   0.42174023727593229
LJ  -0.49416214084810905   0.22513452502939985   -0.27384399770748552
LJ  0.14538654227085232   0.48351548869648264   0.44866681590560697
LJ  -0.18946271486567626   0.45346833032237249   -0.22308737372672541
LJ  -0.28762877110610086   -0.28752861496999343   -0.42258175667923242
LJ  -0.39333386034897561   -0.072589530087647042   -0.1881560377296434
LJ  -0.38375372110488898   0.17393688172581956   0.43926447602012764
LJ  0.44250153480817001   0.051802018232934441   0.057501392344389217
LJ  0.26529390067895908   0.15751667549935103   0.2926037429370133
LJ  -0.35245864603078714   0.35785680537216447   0.44479343307061142
LJ  0.21369290872356408   0.050436198736755783   -0.18390227625485425
LJ  0.012083040427144693   -0.053533168020776366   0.037654924781519425
LJ  0.48399357125872594   -0.19502301851480575   -0.29111687544930887
LJ  0.077057844001375192   0.42507940956235585   -0.42434094356899404
LJ  0.47927708930202834   -0.060113153888889659   0.39770894531712891
LJ  0.072170788421137097   -0.075804764579003328   -0.25337358065832116
LJ  0.13683843353186767   -0.37453382313028583   0.11324334336021812
LJ  -0.24402328448565061   -0.44987446254193275   -0.47173418984049992
LJ  -0.32884268950780965   0.10962964879602134   -0.08915265315050569
LJ  -0.33828145737609477   0.37448349033021067   0.024725453921088436
LJ  -0.4874238693226618   0.48011509088847804   0.27134957409885541
LJ  -0.49074975957665562   -0.021082656919523317   -0.070976866211337544
LJ  -0.43848841690038531   0.024225604146953007   0.093442986690507573
LJ  0.012649400796792156   0.11172407886803949   0.21417594503377099
LJ  -0.021620171857561762   -0.22162668640087979   0.19578631459959323
LJ  0.16712930453498839   0.20715925811747848   -0.4954140606875751
