108
#Comment!
LJ  0.36354813203685443   0.44862851788497554   0.096934428621366281
LJ  -0.35935960691384905   0.20478955475624849   -0.43122008857519639
LJ  0.22449123750017261   0.3965858575423335   0.078978803271195719
LJ  0.41695956795341921   -0.0067966830739127999   -0.19334253513543093
LJ  -0.41652184710603335   -0.075223198649623846   -0.045785392222159216
LJ  0.41109009820655829   0.3673715934625672   0.3138745305028659
LJ  0.42117876403804733   -0.43324260871323383   -0.27832467027895053
LJ  -0.23434617887357173   -0.26319231169218538   -0.24638678878813308
LJ  0.11970588693332175   0.45359332675178332   0.18414495840251213
LJ  -0.23577629410628331   -0.035753805158160415   -0.4424300677012557
LJ  0.13766749961306446   -0.26250881734324999   0.37246945846631574
LJ  0.21324925966972275   -0.20499826860252268   -0.05365841370318046
LJ  0.26749896689037272   -0.061467545646640497   0.4995436982198323
LJ  0.32055633753105478   0.37020701148598101   -0.45067282471434239
LJ  0.20842034989053376   0.32255193673359073   -0.095994498124108096
LJ  -0.41405200346743298   0.12493510793763839   0.099110585439703636
LJ  -0.34464077125260056   -0.19291271929909393   -0.13967452627880622
LJ  0.032405404876180412   -0.49382133444844178   -0.013780337627186749
LJ  -0.30711395814662196   -0.30022251964403912   -0.34656345797893084
LJ  0.18192303893487816   -0.32043142506003286   0.25423799221887877
LJ  0.31612507203821433   -0.35034405409628144   0.13712524295024614
LJ  0.23023519686579985   -0.098883284681316644   -0.055911432438344441
LJ  -0.36913267692377671   0.10899876896208838   -0.4523435764125755
LJ  -0.060227298998855185   -0.34129710583807354   0.17761236013655332
LJ  0.10513868559540247   0.49379450435617195   -0.2541209240145913
LJ  0.43305216108823796   0.35348451879772663   0.41618405080405652
LJ  0.15429362863098547   -0.24528754954360857   0.072886543136452972
LJ  -0.4821079253859874   0.007519613042551606   -0.19655039407807892
LJ  0.33624441006779171   0.42196153299444633   0.18202129237872128
LJ  -0.41204417227512735   0.36552996887179118   -0.015799193147013682
LJ  0.22810915024077993   0.20100653883707267   0.22328401520001995
LJ  0.12133997048581137   -0.21686330608467844   -0.47422473864930209
LJ  0.40757687272466064   0.15676768929508378   -0.37793336475161637
LJ  -0.18148606554714641   -0.18773061577631753   -0.11212086064887215
LJ  0.024904577547556903   -0.28063947605435191   0.16430422357956623
LJ  -0.37780365353758566   0.42549150665215779   0.32336255763537552
LJ  0.11675581087581052   0.16965246993151289   0.45008916892587292
LJ  0.37690544173373991   0.28899642309529155   0.25765592728438219
LJ  -0.44062473861362467   0.35158436767327006   0.33318696761893313
LJ  -0.16542256474792544   0.38623479241916131   -0.427057366085279
LJ  0.44552982134151531   0.49273895202864954   -0.31192136585997704
LJ  -0.24661156544723928   0.43389896653681903   -0.13749130216862254
LJ  0.22383260174931288   0.11114732643974341   0.058252613754816253
LJ  0.25440862579182028   -0.092607059495973379   0.34207425339497277
LJ  -0.38533348837962811   0.099483320595376665   -0.3534328506286169
LJ  -0.15719107237866328   -0.39937840069595937   -0.47712539456093084
LJ  0.10574485390597876   -0.2839561816344528   0.46858165698085824
LJ  0.46502472267067319   -0.49278346754614627   -0.20726773266220772
LJ  -0.095361892587257885   0.18029336904086996   -0.2780042171384326
LJ  0.34735987605540875   -0.28463134428043335   -0.11572181664151028
LJ  -0.012723319092565528   0.029701381352649162   0.3563288896901079
LJ  0.4244282434635826   -0.12095584416443506   -0.12036468005597344
LJ  0.026244421552063035   -0.093301606891828467   -0.33781177256365902
LJ  0.13313970261535091   -0.076171979975656598   0.1687271904941485
LJ  0.31608293213697752   -0.46926484092547754   -0.30708970926452256
LJ  -0.0924488284562415   -0.37121964522603951   0.11065409017235485
LJ  -0.47125684208956353   0.3881466350117872   0.081132996391773279
LJ  0.20048442740703784   -0.37340477668149086   0.4622874470809703
LJ  0.24809199328852061   -0.4174886590563503   0.32301006940074606
LJ  -0.29888989062394461   0.15584410728428028   -0.28665061417414395
LJ  0.39345905864430331   0.41961422557530986   -0.38016072350574059
LJ  -0.23510085288619512   -0.4112376552342214   -0.11710357719161611
LJ  -0.2120719453148357   0.47113498866272241   0.42612216772246864
LJ  0.2074195648226308   -0.15324351627514202   0.23737205614778065
LJ  -0.41426664008426078   0.020487490244886761   -0.47332814929937228
LJ  -0.26870321806150205   0.3139677468351279   0.4558268344313488
LJ  0.16002064648332548   0.17671757535338262   0.29885154288234289
LJ  -0.37946178367665478   -0.029690921437984026   0.2579002311476527
LJ  0.0272010985261157   -0.43563224330393668   0.10520128166479727
LJ  0.32244665810641754   0.15043624850675438   -0.32851381746481534
LJ  -0.066501006800275514   0.11733099677728952   0.35520915696367295
LJ  -0.23450096329280104   0.3558264264719681   -0.089808087320500787
LJ  -0.34631191449502019   0.10491105797672758   0.40400734972608826
LJ  0.17948189933086336   0.45847123646341797   -0.176492584725635
LJ  0.017142588598823172   -0.43500619068088087   0.23921918014552412
LJ  0.49967271233316557   0.43851817080202976   -0.080559177804963591
LJ  0.49015355284198903   0.15528157398602929   -0.015514799259472353
LJ  0.060125590112849077   -0.1731054522677786   -0.14531444509834981
LJ  -0.43558512363146734   0.15773663995838361   -0.079335383097423134
LJ  -0.099349129358701438   0.31275792412248393   -0.058851076453561524
LJ  0.24600798501949173   -0.081996207861381273   0.14359506237636532
LJ  -0.33005143433977835   -0.0094705434987894712   0.48556711458940915
LJ  0.061016081638830766   0.23755265465523587   0.4217170867191562
LJ  -0.49437685768027217   0.22492340515912021   -0.27378131646991771
LJ  0.14548379251623303   0.48332854806104919   0.44854710133513581
LJ  -0.18954811035534336   0.45348286574043506   -0.22294944952925549
LJ  -0.28757735893888381   -0.28739551748173431   -0.42254802195301872
LJ  -0.39322828878906413   -0.072592967298252653   -0.18822205587273322
LJ  -0.38383988848833445   0.17408742988124698   0.43928579750022978
LJ  0.44259484759480922   0.051690073673806583   0.057354349049739205
LJ  0.26531720305815903   0.1575153592820478   0.29269001125878186
LJ  -0.35239970105629437   0.35800736973783592   0.4447313987808712
LJ  0.21370764185714794   0.050340341252631517   -0.18390073111559985
LJ  0.011912499274650273   -0.053543374830180193   0.037699481320886331
LJ  0.48407927461080796   -0.1950217542987169   -0.29110449765681451
LJ  0.076949573824319203   0.42513082766038685   -0.42429991637316716
LJ  0.4792099050285718   -0.060165099535477412   0.39777826847539854
LJ  0.072198499973145369   -0.075712383067773614   -0.25354010092351059
LJ  0.13702427295534084   -0.37438093385842636   0.11314281699967872
LJ  -0.2438169033217748   -0.44994427728504005   -0.47169802305541453
LJ  -0.32865629624951587   0.10972179445526715   -0.089077263571412435
LJ  -0.33832550084885554   0.37443160640200157   0.024802994776505789
LJ  -0.48735122977461404   0.48009719681589214   0.27130570255767
LJ  -0.49074990667779639   -0.021122981251424405   -0.070940951737760105
LJ  -0.43844105185606558   0.024247104986296876   0.093369451604848372
LJ  0.012755286359064101   0.11173272432786151   0.21427167893559651
LJ  -0.021736200744160161   -0.22150511063413011   0.19566728991067331
LJ  0.16729998404782487   0.20712630304684951   -0.49547036281256612
