108
#Comment!
LJ  0.33719857509358209   0.043919098728517569   0.40780424474293037
LJ  0.23320083103320399   -0.21592238818057152   0.47973550049084968
LJ  -0.49149714088948998   -0.24158947946145426   -0.39946259932522538
LJ  0.29614607527483106   0.47970128692833242   -0.19028773364327817
LJ  0.090759446917505357   -0.10879972795982701   0.28929937320728583
LJ  0.14292788381447785   -0.39199559864368594   -0.35263371638634233
LJ  -0.15156049971474278   0.40624837041287515   -0.2182776651326031
LJ  -0.067115545457357387   -0.30403259738688082   -0.16580740694733548
LJ  0.053224920443013975   -0.44361947664528945   0.41902994258378901
LJ  -0.42147805130693428   -0.43515243365543621   -0.27392941328771725
LJ  0.32830299019683912   -0.34509992638749193   -0.49493568119861259
LJ  0.39768667626060611   -0.30308682793541308   -0.32986344388341532
LJ  -0.48795155603322088   -0.40267057980025284   0.45359886558544776
LJ  0.21382684170211405   0.045179271442594635   0.077325967824039443
LJ  -0.33817335072295496   0.19294266292441922   0.070190016264370894
LJ  0.13297778272026636   0.48369968457885754   -0.24470262821018429
LJ  -0.18818579251220036   0.13183926532465853   0.34695311240882504
LJ  -0.056334410167791352   -0.23126526242771392   -0.048352399255223784
LJ  -0.16230591116928297   0.3345011641087946   0.28167591394910046
LJ  0.23797245202701783   -0.067032089402060957   -0.47550025466400425
LJ  0.46313636686965881   -0.4368620939850808   -0.39144418398880215
LJ  0.28702181307137714   0.17559441268263545   0.46219210056023419
LJ  -0.24311228501999976   0.30974326292592069   0.4570039372718489
LJ  -0.044927451745535356   -0.35617399742171135   0.079984407791434509
LJ  -0.055071678392025113   0.091317243605107859   0.43557790312819611
LJ  0.23184012815969848   0.23227201359499253   -0.28714657301216961
LJ  0.28190377662010535   0.27013800448798647   -0.25428003314520992
LJ  0.29571415020555603   0.38601159224416592   0.49890117369928888
LJ  0.40929650952014424   -0.12990088473439065   -0.0092564088959026462
LJ  -0.34934379260260867   -0.28848749025135462   -0.14325260132376141
LJ  0.35407135113591631   0.19847467149548173   0.016315990521567989
LJ  0.2991777261326275   0.48519173474417776   0.11082499167446443
LJ  -0.35569658637263613   -0.36834257153037153   0.23279002908847066
LJ  -0.036920463692410255   0.21179727306278368   -0.40479598310621001
LJ  -0.40342840639166694   0.16005550054738649   -0.31707792750596842
LJ  -0.23945209480839741   0.31491610842707785   -0.38434673904164018
LJ  -0.34101907209836729   -0.34785358368045805   0.35096525818134533
LJ  -0.03901617688789337   -0.36267610728754518   -0.099283125929761892
LJ  -0.096436179269408853   -0.39699234992390176   0.37894867319708331
LJ  0.31939583587185272   0.16618133128807475   0.081876976623166009
LJ  -0.21144886337895519   -0.017215395971747625   -0.06603896038070052
LJ  0.25169547008051668   0.37637596605842977   -0.23410750373737291
LJ  0.32003993207536974   -0.20722708284862812   0.2155414865042386
LJ  0.12004005351984694   0.05979502175621975   -0.4585181546833248
LJ  0.14616747273885758   -0.16696864299657224   -0.14394496495265693
LJ  0.21955300489967022   0.032143623630080519   -0.20904743891685076
LJ  0.0048425620786473637   -0.29318561107124363   -0.33821244162164388
LJ  -0.2379853324332438   0.0022272476080640344   -0.43643304822799128
LJ  0.25684837801853333   0.31018601121768252   -0.43462582235237124
LJ  -0.36330815168541514   0.25055688896395434   0.31611949896447006
LJ  0.1484541746620941   -0.47787556774273393   -0.0042060151501424007
LJ  -0.10480664789091645   0.44072729890310419   0.22581689915439901
LJ  0.16774486993688387   -0.08356185442293472   -0.28309083854978628
LJ  -0.24002925814332526   0.21143921309114905   -0.47950307327386871
LJ  0.02896194816450226   -0.10416419112277714   -0.18551837442635424
LJ  -0.020537703737798875   -0.14474020008348293   -0.33890684975969526
LJ  -0.070830811131086732   0.013499809404471224   0.46865376994364238
LJ  -0.047422069916779531   -0.0475102618986065   -0.046784358071331807
LJ  0.13736164970517856   0.42297072373158129   0.36639135707563059
LJ  -0.32243642138824963   0.14344282483445422   0.28249874798331148
LJ  0.46477236345552214   -0.4922849433489434   -0.14469541629407895
LJ  -0.42369287158717528   -0.10520573762310877   -0.28587082077396131
LJ  0.093462726652941003   0.40650221727512348   0.040945985020245407
LJ  -0.42946016016578592   -0.48640063624576058   -0.10358508045180943
LJ  -0.089671873993363196   -0.47527035458564149   0.25408578434450085
LJ  -0.093647976610567854   0.13838688399070811   0.00097943603272819448
LJ  0.34641407754165349   0.096239277167689874   -0.031215627721584236
LJ  0.49448649341812506   -0.37583705943227114   0.20819774294547755
LJ  0.39828949193142915   -0.39264922203908798   -0.23571861678391223
LJ  -0.4990014370466157   -0.45421156239615212   0.19862143800318724
LJ  -0.42498056085780017   -0.27829696941270782   -0.41684588451255333
LJ  -0.12848334040231282   -0.21683490858253679   0.37838425253867075
LJ  -0.33665115224265274   0.35272362095492177   0.23879154011291318
LJ  0.31038692733075607   -0.46462029014887812   -0.010145567239588515
LJ  0.23711192397436559   0.017181785033368781   0.35036567659531315
LJ  0.13635813191435586   0.24990073613319083   -0.1222521899147755
LJ  -0.14431795440402923   0.15373777762272209   -0.26186389545983757
LJ  -0.15949728158660229   0.013855571852398498   0.10353222214809481
LJ  0.21817367189310116   0.38424972238415733   0.060654687570866575
LJ  0.48836545455974972   -0.12015079015504793   0.31116232888812323
LJ  -0.26462266541154589   0.20411133372884185   0.10983613250457235
LJ  0.37365462721336512   0.48756596763804289   -0.34110375424317341
LJ  0.090448226514913133   -0.41384858928357321   -0.0093420722643204005
LJ  -0.050925896145686628   0.21658659041774642   -0.26224403252861628
LJ  0.08861390526280287   0.38418551112692489   -0.064312803284953951
LJ  -0.44775209399316884   -0.22910706080296184   0.12924901745945297
LJ  0.11355880810223501   0.32580705466495774   0.49590215537971172
LJ  -0.24210660375965848   0.026511637466381282   0.20705574731732473
LJ  -0.42246092062809781   0.33574405313340783   0.24346675034452367
LJ  -0.37449137198736854   -0.49086618070417964   0.38201595830225965
LJ  -0.22806003622893453   -0.17609845969545715   0.32245821115780943
LJ  0.20730555282979829   -0.42921343042275079   0.19050622710700979
LJ  0.19166680282696433   -0.13785204759465955   0.11645904983281014
LJ  0.26228628887204009   -0.11564086465195329   0.21299403482287471
LJ  0.48746178760147618   0.26441520068320878   -0.10728494882408697
LJ  0.26164476411847265   -0.066596194898504407   0.14796628933391384
LJ  0.32312698568987069   0.47180625331661502   -0.41683587655090171
LJ  0.18534480672525563   0.19647689532294429   0.46755972331864765
LJ  -0.2556205382533292   -0.49866184655403878   0.22026341908367209
LJ  -0.30287168598983633   -0.038839368794938101   0.28762347140778483
LJ  0.022439469364997858   -0.079604196901881738   0.33602545764589609
LJ  -0.32018105399120533   -0.17324717179465757   0.33786079234305821
LJ  0.31249811780964615   -0.19615119414256826   -0.2192766987072709
LJ  -0.38975610714656794   0.16347305810732538   0.11134627064153393
LJ  0.34948522385588027   -0.43761129637542168   -0.11563583483759306
LJ  0.48239846244974161   0.15473241351252648   0.32943259756182058
LJ  0.21911426698293859   0.37591533187758291   0.27597022677593558
LJ  -0.1502757204271418   0.26190717533040103   0.41607471736118939
