108
#Comment!
LJ  0.33726135600317603   0.043907256103179089   0.4076450283927926
LJ  0.23316834747076631   -0.21599147784039907   0.4797974382567356
LJ  -0.49160427217738933   -0.24159296712959405   -0.39947329096682177
LJ  0.29625804824843122   0.47984691749502245   -0.19050445583588255
LJ  0.090783875574133047   -0.10878275767934177   0.28936737503601956
LJ  0.14286334615261811   -0.3921081543135142   -0.35265921081222706
LJ  -0.15145032932350327   0.40627567995846647   -0.21816234114205979
LJ  -0.06717729039244015   -0.304104845875934   -0.16554065145328986
LJ  0.053032024253519647   -0.44356507928858169   0.4189590245476551
LJ  -0.42125372012370788   -0.43515882754930291   -0.27395258287495583
LJ  0.32828564825343653   -0.3451087087663211   -0.49493732561445042
LJ  0.3977127988026245   -0.30310785946277669   -0.32983709769159258
LJ  -0.48790773290685252   -0.40268958953305778   0.45353500605116948
LJ  0.21387986500711606   0.045036458377126491   0.077366326986079162
LJ  -0.33823983186964091   0.19301023767611222   0.070160054617302042
LJ  0.13305006745242054   0.48362187979973492   -0.2446859486325863
LJ  -0.18811829492706092   0.1318733901297679   0.34684407488682067
LJ  -0.056260362120124592   -0.23129173219468938   -0.048295496402234656
LJ  -0.16229508589133632   0.3345429969235027   0.2818053225530478
LJ  0.23788531984047995   -0.066982424166986798   -0.47554942559322666
LJ  0.4630651991100842   -0.43693055102247741   -0.39156976002350657
LJ  0.2868612640386633   0.1756227689295439   0.46221277081945372
LJ  -0.24305713333377324   0.30970375334602573   0.45683982857468103
LJ  -0.044939939091595958   -0.3563048936181723   0.080090399372841639
LJ  -0.055079266149342512   0.091509239019701732   0.4354557585049626
LJ  0.23196269467805267   0.23243598271345417   -0.28704563812611433
LJ  0.2820117887795715   0.27002352007294267   -0.25427639933041379
LJ  0.29564979212894665   0.38614633434612722   0.49887416455918865
LJ  0.40911491378156811   -0.12993387463279288   -0.009156582888870635
LJ  -0.34920996030032458   -0.288234184542767   -0.14315542161400441
LJ  0.35421511537866424   0.19855825122106296   0.016451538814509174
LJ  0.29934442829225966   0.48520068581984271   0.11095980078169093
LJ  -0.35587994784055677   -0.36840934293413424   0.23267909353542274
LJ  -0.036832242955761089   0.21171812627085515   -0.4046239638793856
LJ  -0.40353643303007763   0.15999924607055446   -0.31707255147963465
LJ  -0.23953238332686574   0.31494670082447812   -0.384286509148137
LJ  -0.34102076970868317   -0.34778638304074533   0.35097847488947054
LJ  -0.038990599941371745   -0.36263325420806725   -0.099252806610739208
LJ  -0.096278621648324555   -0.39697190294228446   0.37901176288122118
LJ  0.31934702649409952   0.16597731615648792   0.081951644625889164
LJ  -0.21145056301984366   -0.017125966972788238   -0.066069096819562023
LJ  0.25174858754904389   0.37644878079856747   -0.23407922394918004
LJ  0.31994857960612433   -0.20713694579681746   0.21557572326855734
LJ  0.12012764877627799   0.059683871528247383   -0.45847452300024039
LJ  0.14610962376768294   -0.16699882285515288   -0.14383609842361358
LJ  0.21952916664605635   0.032184828343485586   -0.20905339376498788
LJ  0.0048811882115040893   -0.29316827609708868   -0.33825178455009181
LJ  -0.23791169981627455   0.0022248073837704994   -0.4365449033359538
LJ  0.25681321446185229   0.31009300996974265   -0.43454080819159985
LJ  -0.36328401491113249   0.25052432493270133   0.31602626047310611
LJ  0.14833803860074463   -0.47790391447758596   -0.0042957689184729133
LJ  -0.10486594617665072   0.44080833149065013   0.22597932326743284
LJ  0.16784534927398931   -0.083427156210451436   -0.28298104717981648
LJ  -0.23997572756907934   0.21155693223793628   -0.47943566498587592
LJ  0.0288085197827209   -0.10428281579467148   -0.18557218755987689
LJ  -0.020595135127390803   -0.14475500506664551   -0.33892748210515861
LJ  -0.070909991494209873   0.013553190872703378   0.46870433670056533
LJ  -0.047423194680066595   -0.047811633703648306   -0.046926382300940872
LJ  0.13735066017253345   0.4230148450577394   0.36648751079252645
LJ  -0.32255513320788082   0.14346993964633817   0.28258617201890968
LJ  0.4647132772077936   -0.49224472733432517   -0.14475157718686121
LJ  -0.42366277813382153   -0.10532020785384463   -0.28589151548031333
LJ  0.093307937527630044   0.40631065867120791   0.040815162089519796
LJ  -0.42942911432891001   -0.48629114670927304   -0.10364376287603659
LJ  -0.089756440297233953   -0.4751980281012535   0.25396317099630622
LJ  -0.093705317742157693   0.13823252753479578   0.00095484138696264021
LJ  0.34629817511493233   0.09621071216469318   -0.03125218553047996
LJ  0.4943864711925296   -0.37583024608374016   0.20820700317306856
LJ  0.39816929561626385   -0.39250388381236961   -0.23572433156909656
LJ  -0.49910279951541148   -0.4541889555209328   0.19857779196580788
LJ  -0.4249376344501718   -0.27814825925805153   -0.41677239820617729
LJ  -0.12845714142108153   -0.21690141777866256   0.37847913896359531
LJ  -0.33657282174505809   0.35259784063438065   0.23878588587862085
LJ  0.3104309203273023   -0.46465940205445444   -0.010166569199724224
LJ  0.23714122781714359   0.017245520027309086   0.35041498484693751
LJ  0.13646085910606826   0.24987340568568323   -0.1223420503372524
LJ  -0.14428276331827369   0.15373870324880839   -0.26180895396020415
LJ  -0.15945124389283552   0.013959658944906823   0.10361161428676467
LJ  0.21810055110134402   0.38447306811362253   0.060633336133183287
LJ  0.48850724463674239   -0.12007863984855055   0.3109970864640203
LJ  -0.26455695312164301   0.20413618382707105   0.10983808613779358
LJ  0.37375039429651746   0.48737346194959663   -0.34116809622299937
LJ  0.090500526697763733   -0.41395329563847733   -0.0094197698372638482
LJ  -0.051242352765082017   0.21666338355530268   -0.26231527650958869
LJ  0.088682624019995729   0.38412478350875151   -0.064422672898578365
LJ  -0.44784283613481818   -0.22916727962764405   0.12927784084185087
LJ  0.1133718054195879   0.32590764093767172   0.4958145400093768
LJ  -0.24203884129979231   0.026577925348224014   0.20704397976226174
LJ  -0.4224046682838109   0.33568931952238801   0.24369028755114813
LJ  -0.37430995593911748   -0.49087526424569489   0.381957914617648
LJ  -0.22806233137700901   -0.17611071994334884   0.32242230782863823
LJ  0.20741686427695807   -0.42902254085080138   0.19054731569702341
LJ  0.19147733233394626   -0.13779642842966106   0.11644303974953721
LJ  0.26229168171077927   -0.11562932818358498   0.21307162765760182
LJ  0.48755695427445633   0.26426153374734324   -0.10742113353641086
LJ  0.26159301040538152   -0.066700369650998875   0.14800418628230391
LJ  0.32309029629316671   0.47191754312918066   -0.41678806838014393
LJ  0.1853017359379637   0.19644552442523935   0.46764538977472986
LJ  -0.25555855743901695   -0.49858721008882295   0.22028316197941494
LJ  -0.30279275646408221   -0.038875640470849335   0.28758368279227337
LJ  0.022492729274722175   -0.079539188485207343   0.33597086192738301
LJ  -0.3202066098689263   -0.17345484144071938   0.33768919364309063
LJ  0.31256648263799858   -0.19627657237307425   -0.21919430040575363
LJ  -0.38958267491759341   0.16341058403731656   0.11140577167301199
LJ  0.34938503753725464   -0.43774928618799236   -0.11575834969477047
LJ  0.48248583048390431   0.15496091078732507   0.32929094506617734
LJ  0.21917435672761559   0.37584031459504508   0.27607109326112389
LJ  -0.15031490302506104   0.26193141982532536   0.41603137933279022
