108
#Comment!
LJ  0.33253855417946321   -0.059514453311514968   -0.2848518594885816
LJ  -0.25936207286106566   -0.13550445107853623   0.088432051013639282
LJ  0.30192983327882228   0.079981655969056889   -0.39274440242588382
LJ  0.26330290790647576   -0.10458211470663957   0.34966971486200848
LJ  -0.38257924959803313   0.33977364510281549   -0.17480496639590518
LJ  -0.078988494981925297   0.24549975587440862   0.39047381195819059
LJ  0.19793918975824515   0.19068792790801387   0.065885561825636541
LJ  0.14019149568812767   0.43283031818372564   -0.43988960623173673
LJ  -0.4182694263854525   0.48786353055979992   0.23616686574207577
LJ  0.26078753090750278   -0.4183234323625753   -0.43241781192017997
LJ  -0.38583194484993832   -0.31362470606439397   0.42747687226545256
LJ  -0.14699911455115983   0.28107297573853812   0.25714794046158834
LJ  -0.052559952580194844   -0.24229352804063756   -0.34581617454310187
LJ  -0.42999011411584614   -0.17370646533188264   -0.029453466970283407
LJ  0.030900027299808359   0.13227745252870926   -0.10421001996439791
LJ  -0.31842306758253164   0.21956856064783575   0.17842108247259142
LJ  0.26125556482504525   0.33345409883440724   -0.39036306577973628
LJ  0.10700161631920418   -0.20523343785400192   0.22597540424598356
LJ  0.2403002234703793   -0.49065059246567061   0.24690706458467906
LJ  -0.1296060697133492   -0.48712240177908428   -0.21512914362150629
LJ  0.49598915717662773   -0.29315662860524583   0.30865882617962925
LJ  -0.05863503963100853   0.152475746498271   0.049132712647149634
LJ  -0.32684972040291349   -0.11550442220750126   -0.18172645651617717
LJ  0.14175760107614371   -0.34857306880119798   0.20472487229823005
LJ  -0.29859180303562777   0.3880063087326579   0.46919332982022921
LJ  0.49600817033714029   -0.010413666957841961   -0.12259966522228674
LJ  0.11217501901126492   0.24411533619048256   0.44708264824176347
LJ  0.29808564150934069   -0.43843603380557428   -0.29203411649299227
LJ  -0.24030078169706778   -0.41838526389170738   -0.46856359567056177
LJ  0.29839421707195968   -0.17733741457099489   0.22798345608465309
LJ  -0.49010297787293522   0.39570241065301104   0.49500810333987627
LJ  0.25534635761595392   -0.085590809442829582   -0.2577588679951216
LJ  -0.26630615030512705   -0.19117921679775285   -0.043605328612003655
LJ  0.49502277366916958   -0.30366316022106821   -0.4862636776893261
LJ  -0.076255635226649091   -0.026064069356460013   0.077380633079743744
LJ  -0.024536883475157045   0.12002331864930238   -0.045207416962243611
LJ  0.099624361131984751   0.090070256815953084   -0.30137953756906766
LJ  0.30133068932491175   -0.42763923807496018   0.22404289195342725
LJ  -0.41096713230088538   0.39334395000366407   -0.47887928951782621
LJ  0.13150747393060344   -0.12224887090410813   0.26339283745150555
LJ  -0.12226846786782575   -0.36595330638503037   -0.49371156953331441
LJ  -0.4685657377885728   0.30772199618387008   -0.062053691631164316
LJ  0.3009037564766745   0.23762057911362372   -0.32812952079876373
LJ  0.28946736627647723   0.25292189005469751   -0.47172052324014824
LJ  0.35222983923816342   -0.08310920308520342   0.31450316205410017
LJ  -0.24962246666259555   -0.44293916968345404   -0.38506676983972465
LJ  -0.3352897059416628   0.43402853706730526   0.055439573731838936
LJ  -0.010100807006967629   0.20373487501163018   0.22548760759943234
LJ  -0.10471155422486786   -0.027857053300512507   0.49991608717641739
LJ  -0.22494377264874524   -0.072293080020992356   -0.10106316247516936
LJ  -0.11796639205514153   -0.28536423574859521   -0.33144234336204348
LJ  -0.094936694191724263   -0.28858942235709539   -0.45157640786919279
LJ  0.087563792151177433   0.49749047855001788   -0.04783357768746898
LJ  0.4264067760619949   0.33277777190259999   0.1481469606240548
LJ  0.065637590298157092   0.41554541299837316   0.14972001645710653
LJ  0.22525491805654754   -0.40302549951985911   0.24626956816921472
LJ  0.45087589824162344   0.48195834355733813   0.068624389581179973
LJ  0.43409382531788576   -0.21188429616849458   -0.055832020491866093
LJ  0.060889585678061298   -0.44581472700523428   0.035819709194495314
LJ  -0.31549233290079892   0.31358244860090639   -0.21749959842752212
LJ  0.33470676581413489   -0.18404771960736249   0.014947149092930422
LJ  0.36668946006921754   -0.40071585807279331   0.26219343322980088
LJ  -0.19117590912862961   0.48093228775321628   -0.28752795276596854
LJ  -0.33427792314493471   0.048085778731254934   0.28711142713409438
LJ  -0.28495895204943045   0.30363668272171934   0.36378317256524817
LJ  -0.4757991162055264   -0.077212335332457208   0.12866498668129242
LJ  -0.0052092438019692234   0.28306415824870623   0.13797048863356329
LJ  -0.38252407199062366   -0.372118409266323   -0.28795683410577444
LJ  -0.39366790104498472   -0.12529597337159873   0.20488351443573929
LJ  -0.45350520729522931   0.45864695266045807   0.30708482087411371
LJ  -0.32692344656891376   0.16461205056377465   -0.39525618774124444
LJ  -0.25378703414042519   0.30022242466660176   -0.028364484319439595
LJ  -0.26271255297300411   -0.41559934265881687   -0.2630726337392375
LJ  -0.37597982372912409   -0.14158257442356589   -0.090353163710075679
LJ  -0.060067816075613484   0.15877382914469032   -0.12447798924249101
LJ  0.40589395968403874   -0.041891522780864568   0.2967569388465488
LJ  0.21499879495133165   -0.17845861624186563   -0.053386895876768377
LJ  -0.17056763627621763   0.4536720813513862   -0.047890624100544524
LJ  0.15580966556673229   -0.29840452170776538   0.12134021837202734
LJ  -0.30452673655448992   0.062301751776245341   -0.36627081479660506
LJ  -0.20498824079686145   0.42370874603910486   -0.34942473774861216
LJ  -0.48393183961885988   0.16455084482890789   -0.3983495379951012
LJ  0.35814397446795726   -0.19665266778015555   0.43940153586039549
LJ  0.015598433533977911   -0.29151370034131874   0.4339391183547241
LJ  -0.28423465370373896   -0.21742700454488564   -0.26609207377356736
LJ  0.097518210526704618   -0.1052775694658476   0.36726589554165734
LJ  -0.078800847373229635   -0.1475795568221703   -0.066300547128064727
LJ  0.087388370076723981   -0.32509319020483635   0.2623452948243602
LJ  -0.1342241197561512   -0.27570766938546726   0.31671236860457092
LJ  0.31413236299853781   0.40612681366144532   0.11212888437907963
LJ  -0.31414932772286941   0.045520849139193215   -0.11700197385915709
LJ  -0.02182497679361205   -0.20310022078846726   0.21694066962837438
LJ  0.19773625451117607   0.10533835727796377   -0.14185199933014139
LJ  -0.098410229443499017   0.49644562692430189   0.48825268047481946
LJ  -0.2485031394498691   0.37107362547528516   0.10150191848765554
LJ  -0.34795454500306616   0.31759425720289713   0.010073611446702732
LJ  -0.34585835766097794   -0.4820261692459184   -0.4202954532321545
LJ  0.27195635852868832   -0.33612378053911002   0.22290370803163095
LJ  0.051388050553817739   -0.16105089469330044   0.28329809130217309
LJ  -0.078862057712148062   0.26328665826790865   0.02759888212318725
LJ  0.11262868413995057   -0.14884171887529105   0.15175007878755267
LJ  -0.44484820525258245   0.33292746755792274   -0.27848506280524421
LJ  0.0088558177813687234   0.22369953816600385   -0.094808998421570298
LJ  0.012809838900629377   0.31162849532439307   0.008895422720479277
LJ  -0.15494957794310063   -0.38580784113673222   -0.28477296657488321
LJ  -0.16042348610975493   0.12571700911076666   -0.23033033647821016
LJ  0.38759542363498301   -0.44684095192326873   -0.1957770477972226
LJ  -0.33186164211420399   0.36825138066380159   0.17684790374079051
