108
#Comment!
LJ  0.46872677504010535   0.34558821992483768   -0.033769201639459533
LJ  -0.30346303186535523   -0.46872148652851053   -0.13445004387116738
LJ  -0.19223505582665978   0.26071132576176698   -0.03337723644887846
LJ  0.39889161725106137   -0.44752903565108676   0.33830623418135691
LJ  0.23484841177274665   0.18104306666641648   0.22900064613094981
LJ  0.18467260014151313   -0.098191517604326067   -0.14333558758665371
LJ  -0.25186235824366943   -0.48487006238210545   -0.37077735573644505
LJ  -0.25794720248557002   0.0013444770759580464   0.20639683465697575
LJ  0.38315894757063812   0.41723324150034324   -0.18892858076012642
LJ  7.0854568050722179e-05   -0.37887880245450772   -0.39059078579888507
LJ  0.18183472066018364   0.43809936622346979   -0.11831359060980469
LJ  -0.007489878822911039   -0.36807657098843877   0.40874240286581193
LJ  0.35163724731283941   0.20310031934157355   0.084694527499803551
LJ  0.45557166251162046   -0.26690732896934088   0.3050399474510509
LJ  0.168958600845767   -0.4722533855155876   0.049556242478405732
LJ  -0.43306161082157052   -0.22289959592538144   -0.1033695679934712
LJ  -0.13973905566946357   -0.14118550386038936   0.085084145298475064
LJ  0.11350064636719043   -0.36407774100041435   -0.18653696046605062
LJ  -0.0099197490338659398   0.2121953855488799   -0.096991482630761225
LJ  -0.4835057248782556   0.36101519370889357   0.22550316466581735
LJ  0.48542268275233352   -0.20591864125393156   -0.38043325992321025
LJ  -0.28657581495245277   0.10750564521962992   -0.041547432484091977
LJ  -0.022223076989254867   0.45579697988793549   0.021237211492480583
LJ  0.036400549257356273   -0.16493705132833503   0.23024588781907265
LJ  0.23239675039961752   0.49422373840650102   -0.35894858872620183
LJ  0.33260788759543108   0.41640387751501745   0.11249563225964877
LJ  0.35079714751884566   0.0095216587802693115   -0.037928768416608173
LJ  -0.030080045852643671   0.43869487706894261   0.35457698548196448
LJ  -0.22170249108746834   0.44808794224188153   0.046606435351737356
LJ  -0.32337201058297832   -0.26932847980573538   0.22231503389424645
LJ  -0.43146628297357525   -0.047778111771805368   -0.021391776988581693
LJ  0.051606103534724876   0.24247762230124881   -0.3298707990572341
LJ  0.057915964093077456   -0.10270863484901137   0.022322666265222096
LJ  -0.47005228464001303   0.242598238213559   -0.48990182617656608
LJ  -0.24180937271128497   0.035553087587752455   -0.3824849739604661
LJ  0.27098767635297683   -0.010056177523689324   0.18007223444703613
LJ  -0.48157892742734448   -0.34716316518915197   0.13343035035029877
LJ  0.38396810910851853   -0.24251001624928026   -0.014916771827176257
LJ  0.45661214483815304   -0.15637221213853505   0.14377823090456934
LJ  0.12938793739541568   0.29901468750205124   0.046106693662096521
LJ  -0.050377334991348999   -0.3498191086200288   0.025178050722505792
LJ  0.26905310773336555   -0.10398596607323804   -0.43155020360977575
LJ  -0.070320290603650748   0.38978363363229601   -0.16455122225881397
LJ  0.4953186848068592   0.077566012313858665   0.11348569304930425
LJ  -0.046093033554442699   0.00058055997393053271   -0.40985554437241634
LJ  -0.42873194943713139   0.44768805974415921   -0.29064787322310054
LJ  -0.14180611018710179   -0.03263365060859607   -0.2217457531203009
LJ  -0.43161452192306327   -0.36864956085754375   0.45379433180504558
LJ  0.26870487010244082   -0.29336150694290758   -0.2878367672331596
LJ  0.15240532948334587   0.082951786190181245   0.03213718223247642
LJ  0.39052664295055795   -0.09725877307504445   0.41155809654780873
LJ  -0.40947994774577806   0.46575730888891304   0.058206335798326618
LJ  -0.10025905069131287   0.023119590490115499   -0.034492593502430613
LJ  -0.066294051577324584   0.20119576411969614   0.1112453670161085
LJ  -0.19610211021100968   -0.3800153335908204   0.37065878695199117
LJ  0.42443377506522045   0.20005453426935288   -0.30682745717473248
LJ  -0.43239035339326126   0.42249585904150944   0.44693151620337312
LJ  -0.34619848400795722   0.28638415564286518   0.10827293299573956
LJ  -0.35760205355548247   0.088375586639419301   0.42168793851586472
LJ  0.013462550121075632   0.11251027660862413   0.41687581296262627
LJ  0.03698023597875736   0.061671370263048038   -0.23568732676110027
LJ  -0.48539245891857169   -0.40999921480001933   -0.15286805793329444
LJ  -0.38213789342424037   0.055765617383661099   -0.20869730377834592
LJ  0.44495968483606685   0.0080097909270183572   -0.42905893402971668
LJ  -0.30887989737120808   -0.19827679757212574   0.46941937798815303
LJ  0.38480488885302888   0.38218488763975983   -0.45864836037601892
LJ  -0.15726335260750252   0.1793640166061409   -0.23178906578911851
LJ  0.37665105807736959   -0.11942018381534418   -0.23477481978694686
LJ  0.18052516351054596   0.3903070502060374   0.24160325139510994
LJ  0.49922236118428021   0.16102536688721705   -0.095276889145821567
LJ  0.44869674643617402   -0.42711925807797119   -0.34975614525468285
LJ  0.035957180389570242   0.26561343258130266   0.26238869514867857
LJ  -0.25155033384911923   -0.33460591872770873   0.051052943419706676
LJ  -0.09954007322410062   -0.39542876082933026   -0.20787445914383748
LJ  -0.22602642653002603   0.399199957269182   0.46146536007676781
LJ  -0.16401029263198294   0.17905921255421753   0.49074165541949594
LJ  -0.36731089150390395   -0.32657734427899693   -0.29723827311884998
LJ  -0.043389330485527441   -0.20711550692200123   -0.15500709507694466
LJ  0.29795807219481807   -0.40039670930924681   -0.12127168482749699
LJ  0.26448770510064445   -0.29836564783549185   0.18402321414313838
LJ  -0.0048592442472667327   0.0094207413635733952   0.17665099390683198
LJ  0.45858387481001844   0.073592695851636178   0.32060942902302142
LJ  0.18856109088005513   -0.4310521733156939   0.38674957648488828
LJ  -0.1576083961040817   0.15733857256759354   0.27515364519838531
LJ  -0.35288440130527426   0.34097110986436213   -0.14870377532549373
LJ  0.070872331854013773   -0.40594326412948045   0.22998467271577414
LJ  0.22107105947027481   0.24673175182533058   -0.11213178079452527
LJ  -0.17210530906260232   0.36507645482640239   0.24000495302588837
LJ  -0.13884082263733882   -0.18361809828293207   -0.3410973811938775
LJ  0.20346619112512324   -0.19204160662411157   0.3553073433159642
LJ  0.25768018075522153   0.2886472392932467   -0.31437472229984537
LJ  -0.25250525700368859   -0.23909447910946985   -0.1542522417078338
LJ  -0.32115871705150706   0.25520324898934277   0.32576485117110704
LJ  -0.074011289264953262   0.43016129367003164   -0.3815224700475251
LJ  0.33333148545009933   -0.278609280284356   0.49010657900986743
LJ  0.23079394010640789   0.051001401368359962   0.41292285858250055
LJ  0.17219065063451033   0.091354691263002621   -0.38971435567954471
LJ  -0.19270559668378864   -0.0041408777981978076   0.40285637856345263
LJ  -0.3400725457621781   -0.12017826789611834   -0.30884322233391964
LJ  0.27866507774549182   0.066575927772156582   -0.23091546523453074
LJ  0.20669710668812921   0.25827350277884309   0.48094399577243607
LJ  -0.41770184654466769   -0.081514443852859705   0.34419302353995151
LJ  -0.28538165282757844   0.2703965812639656   -0.3598476175143755
LJ  0.091263425632262127   -0.15507100226848713   -0.31628280997905139
LJ  0.036832249976820011   -0.16467648003560142   0.47641026916605511
LJ  -0.3229414445676061   0.49152058309704388   0.27128983970655646
LJ  -0.11524127898768496   -0.44058840508594116   0.17297036771499791
LJ  -0.16525978970881292   -0.18721745013831662   0.30284942982641233
