108
#Comment!
LJ  0.46855688411755719   0.34567393643647626   -0.033748841011263728
LJ  -0.30402919792723021   -0.46866228381692626   -0.13454764650008946
LJ  -0.19231529001431769   0.26068470800325216   -0.033154056119449639
LJ  0.39936482620394298   -0.44731482814061913   0.33864785345732479
LJ  0.23485816971283668   0.18095877353793424   0.22919320318389486
LJ  0.18486641905069734   -0.09833504904476871   -0.14336927574862618
LJ  -0.25191238278898753   -0.4850013417035553   -0.37056269338848696
LJ  -0.25781748727283216   0.0011663854354115877   0.20611693793278496
LJ  0.3831567459122216   0.41685450911313132   -0.18925140528869103
LJ  0.00018353896367555745   -0.37870034131251251   -0.39050483075133047
LJ  0.18190689622943965   0.43829413248653271   -0.11853770433661426
LJ  -0.0078175212727712405   -0.3679363325552677   0.40904344610542354
LJ  0.35191320924530323   0.20363162510223468   0.084708240886054664
LJ  0.45536889638015282   -0.26719615473444458   0.30522375323091028
LJ  0.1689586068045513   -0.47225477555642542   0.049359136379010106
LJ  -0.43300752096852441   -0.22289894517762973   -0.10321541990240607
LJ  -0.13961038114094868   -0.14106717757957535   0.085121200733618993
LJ  0.11358205473544429   -0.36417740751087424   -0.18663595402299601
LJ  -0.0099722354046572915   0.21252814072756535   -0.097048493589869361
LJ  -0.48342997685143124   0.3606044270746207   0.22559045447969961
LJ  0.4856636358605812   -0.20626705349390917   -0.38075239361004931
LJ  -0.28680982905281471   0.10749074845620883   -0.041078210490678328
LJ  -0.022230310619743544   0.45588826609158228   0.021427522378663261
LJ  0.036664692689834168   -0.16477549486249185   0.22984219417985358
LJ  0.23276441461612099   0.49463707223908293   -0.35902673445865857
LJ  0.3325599528098831   0.41674349742062433   0.11211595595382143
LJ  0.35100527682494265   0.0093071358907254181   -0.038057473561718715
LJ  -0.029749107916232965   0.43871134957655317   0.35455672137745237
LJ  -0.22160940194485371   0.44831825575241874   0.046845212748907364
LJ  -0.32341430322457065   -0.26910393751245926   0.22241065776374147
LJ  -0.43128951503471469   -0.047448314420540053   -0.021399201578038568
LJ  0.051891920525893927   0.24266937503682293   -0.3299498530518622
LJ  0.057794952663192109   -0.10248715437322553   0.022406425432048765
LJ  -0.46991083175114029   0.2426867230430825   -0.48966117099282153
LJ  -0.24192766329074039   0.035576195711946465   -0.38281563409852282
LJ  0.2705261409315432   -0.01018303507757967   0.17988940746024989
LJ  -0.48148231819603116   -0.34675023410895195   0.13348327259107903
LJ  0.38418797200053312   -0.24271384488345829   -0.015245531920043919
LJ  0.45652858283113401   -0.15624726790329069   0.14367162448658441
LJ  0.1296194117863515   0.29906898268021109   0.046357471788619757
LJ  -0.050310479310876823   -0.34983617364282871   0.025141813677318121
LJ  0.26918272311216807   -0.10414903396926907   -0.43169693125095898
LJ  -0.070167741793627628   0.38958148708316093   -0.16474223922112116
LJ  0.49525510491234176   0.077572974542630749   0.11364053074928135
LJ  -0.046221203451260434   0.00050112214592088302   -0.40982588427353239
LJ  -0.42870400013694876   0.44774668575890897   -0.29089027155427594
LJ  -0.14162652335792333   -0.03267280642730401   -0.22142524907929229
LJ  -0.43159070449681453   -0.36873198279727537   0.45366864094573683
LJ  0.26839637599173771   -0.29366627109757881   -0.28794062787937669
LJ  0.15221612375860602   0.082609113612560736   0.032360492900593125
LJ  0.39047649729593653   -0.097583062158957401   0.41135779021070801
LJ  -0.40945428726465205   0.46582587038838014   0.058045625518591326
LJ  -0.1002583268627598   0.023122481910874265   -0.03458485471768781
LJ  -0.066273558614539776   0.20132896814377238   0.11127715395561726
LJ  -0.19602889176486937   -0.37980465009075276   0.37095326656635036
LJ  0.42446054096024372   0.19987125318932339   -0.30698521823746966
LJ  -0.43269241956854315   0.42271104462695969   0.44708716926693187
LJ  -0.34654736332347608   0.28627680710467684   0.10811516126484196
LJ  -0.35748735249131425   0.088319690865890199   0.42189801555930351
LJ  0.013511364338654141   0.11269118225540344   0.41709532918509623
LJ  0.036947012673875616   0.061466017787104456   -0.23537480545648751
LJ  -0.48529355511948752   -0.41000108591868295   -0.15302836039379208
LJ  -0.38238110537704229   0.055439465482230138   -0.20873566968949153
LJ  0.44468631480059417   0.0083883345691210132   -0.42897378468478914
LJ  -0.30846134433141109   -0.1986111248505974   0.46931699584468128
LJ  0.38506104540177272   0.38239471644048928   -0.45868866283680704
LJ  -0.15727306732048071   0.17983971161028431   -0.23144756322081839
LJ  0.3770167424603405   -0.1192264423560475   -0.23491226392911868
LJ  0.18066484644462968   0.39055370284258351   0.24176118082297476
LJ  0.49896814758024677   0.16099002654299416   -0.09545562540588165
LJ  0.44861644232090075   -0.4271692042063458   -0.34975942710939628
LJ  0.035825867048639319   0.26517766083514022   0.2626008829288311
LJ  -0.25170462774050584   -0.33466018820072163   0.051227643513096041
LJ  -0.099695123017092852   -0.39555477581298126   -0.20778566423422382
LJ  -0.22625552649037009   0.39916389274941277   0.46166156542461634
LJ  -0.16417271150104565   0.1787707779768794   0.49079973392806642
LJ  -0.36743442958838096   -0.32685894153225703   -0.29747016601725157
LJ  -0.043089714848484291   -0.20712954744410628   -0.15500442680302504
LJ  0.29764101604232351   -0.40060518758480451   -0.12139802866814449
LJ  0.26457107645759798   -0.29797879604511462   0.18383846783461405
LJ  -0.0048285426689521219   0.0094145476559325172   0.17632167836654788
LJ  0.45824575401061657   0.073776040214437594   0.32068995418685087
LJ  0.18867846762803522   -0.43097806160451896   0.38703115179102288
LJ  -0.1575169298702391   0.15716905277344348   0.27515974218803074
LJ  -0.35283803492198307   0.34092609915396344   -0.14851161976236965
LJ  0.070555390769647425   -0.40590224687491772   0.23008072268277177
LJ  0.22096973888488858   0.24679231548202046   -0.11207188945525404
LJ  -0.1721119987990718   0.36516324562758279   0.24014905775906625
LJ  -0.13920695601849584   -0.1840002583745039   -0.34137842869672752
LJ  0.20358157854635389   -0.1921233690213795   0.35554820989667046
LJ  0.25763219614790561   0.28856305021302853   -0.31444894459500289
LJ  -0.25259186677636131   -0.23885364839387058   -0.15374401762123666
LJ  -0.32133532237884821   0.25522683602377971   0.32556069776031915
LJ  -0.074287472792109094   0.43010655862686975   -0.38143138444425018
LJ  0.33315682797257634   -0.27868486070301846   0.49000899983533386
LJ  0.23088881983104378   0.051150361786308815   0.41302062414937418
LJ  0.17235687021831264   0.091164639844258155   -0.39000536995912527
LJ  -0.19284795803983437   -0.0040075547467207937   0.40269416666401081
LJ  -0.33970013678626176   -0.12020326300647606   -0.3089402359282527
LJ  0.27876341198978216   0.066442986457600703   -0.23102081133189928
LJ  0.20677053698734316   0.25829066973543247   0.48104798191777981
LJ  -0.4175490725658273   -0.081455109469574696   0.34430945949196901
LJ  -0.28543923517710873   0.27012244180861383   -0.35991841231729127
LJ  0.091288675940357777   -0.15513082836002287   -0.31688343624779897
LJ  0.03699346844433362   -0.16470102418994642   0.47654646374413745
LJ  -0.32324165418238804   0.49147631794636093   0.27109828708290684
LJ  -0.11519479034457553   -0.44051729665537859   0.17309985430722977
LJ  -0.16515292630878464   -0.18730463792948374   0.3028175885174017
