108
#Comment!
LJ  0.36530761208959905   0.31054448939822016   0.41294050147960193
LJ  -0.19207004888912663   -0.13427216632409872   -0.38593959926442978
LJ  0.47887442075249814   -0.3906133777184515   -0.24732773393394508
LJ  -0.49988243408807914   0.45914393725284958   0.4866553571918652
LJ  -0.099052312413191637   -0.42731851742612809   -0.46498677340840078
LJ  0.197083084021624   -0.22124978980122756   -0.40534979894668394
LJ  -0.14330759584959077   -0.36595985354633931   -0.093047667952576088
LJ  0.080398822585236104   -0.48373561222861167   -0.069528604122237561
LJ  0.32768240613924093   0.42597312880027255   -0.32639967535083231
LJ  0.11165928069587042   -0.40380585498992516   -0.41907403787316405
LJ  0.27625559754131607   0.4864395346264041   -0.13233627126921277
LJ  -0.34266123174983049   0.31914075598463665   0.42550703900797743
LJ  -0.44705170430667579   -0.045210372378400268   -0.46922624729607887
LJ  0.44348621618288225   0.11890577819055209   0.45543767302556037
LJ  -0.40963680275253939   0.1772647716664259   -0.40525569411888362
LJ  -0.22953995543966821   -0.15976061242008341   -0.15868828615183658
LJ  0.0059308893298532957   -0.21911588672792701   -0.477498559006312
LJ  -0.19279726425137209   -0.24941812501802571   0.28328673515327235
LJ  -0.033558458623024284   0.0030213827102424386   -0.47877348081546067
LJ  -0.059644394663415159   -0.26489011503086446   -0.26853608039168286
LJ  0.32719275793368302   -0.37282883258752497   -0.37145166783026057
LJ  0.23998293309282895   0.061103706064304056   -0.41028748323966352
LJ  0.31732490202795949   0.23890809358641943   -0.28184566332942207
LJ  0.15261162079587023   -0.044107453920972164   0.37147414062758261
LJ  -0.36315752636957654   0.093633588745342472   0.39622643784778255
LJ  -0.15747129143702654   0.34168496357161465   0.35864916382881235
LJ  -0.25685469788236559   0.47071687200574741   -0.46076185039382483
LJ  -0.059297489686569053   -0.4656239498862888   -0.24413198086632917
LJ  0.47950855570956818   0.013844852917049942   0.26430867660494473
LJ  0.075807909217034272   -0.41462502309016536   0.37512859257081876
LJ  -0.22126751995723054   -0.35454975532567162   -0.34396499536713088
LJ  -0.14864983361554071   0.30045767457964245   -0.43748267463667806
LJ  -0.018806256333182829   0.15863891722062615   -0.35387761403235368
LJ  0.21714268487635768   0.24761754667622549   -0.4399954293611949
LJ  0.036940551382739072   0.33287258039519496   -0.29170108543781337
LJ  -0.48948738467481911   0.37851718145728558   -0.24616246881375234
LJ  -0.32689449460997155   -0.41393914982040175   -0.20051832817533971
LJ  -0.38959456033129936   0.46027486884436714   -0.07483076300641163
LJ  -0.38405943495523659   -0.40028598317768399   0.096870363166015855
LJ  -0.1854638848071975   -0.36477624204858444   0.13127246398173095
LJ  -0.20879411072645149   0.36676559706005118   -0.25359647854629302
LJ  0.18040573285876982   -0.36424384906117785   -0.21384954522313301
LJ  -0.21640206635787354   -0.13712418661004228   0.087136204468925865
LJ  0.035830470314189101   0.35027061504514978   0.33268480053141852
LJ  0.019708020700122515   -0.34498061055873958   0.099806388934863377
LJ  -0.47869842985431721   -0.18392591018053697   -0.17961097590652478
LJ  0.20729353591124541   0.4043513709234044   0.046127046106672551
LJ  0.37161736492312336   -0.27561454452850037   -0.093577857945173787
LJ  0.40366300944851258   -0.17168339772164626   -0.44077066891529054
LJ  -0.21379406825881081   0.10883929271341508   -0.47498629410608528
LJ  -0.32746078992073424   -0.29149845445469974   -0.038268534985270192
LJ  -0.35563033257334353   -0.02267522050860574   -0.25128736393859263
LJ  0.29358119383199999   -0.15303890572884771   -0.23863968665373325
LJ  -0.027702907585591654   0.14296296026872898   -0.12701279574602253
LJ  -0.25943778301823867   0.0066448653062684757   -0.066789823219423075
LJ  0.047949425854180744   -0.27872138238452593   -0.088085120942097389
LJ  0.16705871574034498   -0.12287151001397334   -0.059531572086415033
LJ  0.40512593281515663   0.044550174664596646   -0.27308691512126876
LJ  0.054593934386239079   -0.061984233210284616   -0.31046821543360031
LJ  0.15268254452774699   0.115555611723259   -0.20177515684967995
LJ  0.35999691717778953   0.35389778605782213   0.16683617552525917
LJ  -0.21181177855142019   0.31892697258880026   0.010946688927583036
LJ  0.19225624884402254   0.24280514094427808   0.21052210837965912
LJ  -0.22031694682105696   0.12531602196297806   -0.26080566291922203
LJ  -0.047892380081577847   -0.062980067951315152   -0.14840059043688714
LJ  0.029916685839589459   0.45349694641350063   0.15003701634891625
LJ  -0.30130613070312573   0.40241994952375071   0.17645225789992616
LJ  0.15127872377262155   0.29278417111825183   -0.12065887033180617
LJ  0.37024564268338478   0.24800656462233034   -0.085458330593680909
LJ  0.44149319774167189   -0.46073454301725719   0.011097008444567869
LJ  -0.026705643875449957   0.35170361701549435   -0.085391046591854064
LJ  -0.40971047973465824   0.18518449575241436   -0.15872730158158951
LJ  0.42733829081293012   -0.45476936380527433   0.27859250377881362
LJ  0.44531556066484151   -0.31792102531390853   0.42878332747310632
LJ  -0.38551571873637241   -0.22986413341419182   -0.35433364026129016
LJ  -0.36520914506047508   -0.43526538915008434   0.36359067316590327
LJ  0.060090021948129693   0.39314857360946687   -0.46740547113803738
LJ  -0.011682470836597472   -0.1295489372073951   0.046185813974440978
LJ  -0.12901024276272915   -0.45540495515695878   0.32679609197320492
LJ  -0.28057040907507369   -0.29763400536549373   0.4726468817596764
LJ  0.069913945203627967   0.16867054588240221   0.39758792949620908
LJ  0.20680306094889592   -0.36848768587776154   0.017743223897212886
LJ  0.20555628382707816   -0.46086875058078813   0.20633336494156773
LJ  0.25527920615921157   0.49367304788290906   0.43907707525195405
LJ  -0.45292558744913564   -0.025522312567899354   0.0020945781240519238
LJ  0.35946131656028035   -0.099180710973273398   0.11858771771419876
LJ  0.38748729014300509   -0.14447518686786662   0.31925884561364631
LJ  -0.39900844017625137   -0.17818586719117394   0.33577346571267069
LJ  -0.42150185130498907   -0.16178969334669077   0.12808535248202346
LJ  -0.26272250102182604   -0.026558352821870929   0.24515836714679387
LJ  -0.2047149614034724   -0.073235981297342212   0.42675182482514584
LJ  0.25362977916109936   -0.24410511962495668   0.40106680039751935
LJ  0.15479370032494152   -0.21577274531299931   0.17130151459753934
LJ  0.3080110164459719   0.0083743800076004696   -0.090827269182599354
LJ  -0.034069895205286277   -0.11303959038530197   0.26649728443563847
LJ  0.42013142018462035   -0.28022608673216198   0.15503334315393277
LJ  -0.40776432089205894   0.21049073089051407   0.054173111436648033
LJ  0.47866707962664407   0.22425682682949916   0.27548525228133691
LJ  0.35960440109483288   0.16441105732272449   0.12954791796456738
LJ  -0.31653811187864506   0.22087785852873201   0.23207492314814454
LJ  -0.1373828256426346   0.11843581879167404   0.049952514973635731
LJ  0.03010204579940335   0.25826012163415302   0.068079424430292496
LJ  -0.12042976629216105   0.26100891089929645   0.18425043129069318
LJ  -0.13732102529238194   0.1019696748506068   0.33839876937074831
LJ  0.09312645772897217   0.052962121809537945   0.021601666194748369
LJ  0.21876320819831063   0.030394700670571088   0.19949880271812245
LJ  0.0095068147812701394   0.091231425327695362   0.21486076226608422
LJ  0.26076925738548296   0.12866680904330563   0.37805330701537748
