108
#Comment!
LJ  0.36555660500500264   0.31083385562886123   0.41272348999118513
LJ  -0.19202959712487017   -0.13406419019718374   -0.38588298722973402
LJ  0.47867445709841755   -0.39069437129966161   -0.24729536853928308
LJ  -0.49965235307266648   0.4589220958796203   0.48660146423441381
LJ  -0.099013597455532648   -0.42751240024639769   -0.46462970303602846
LJ  0.19714581636257983   -0.22127380737024871   -0.40571915917697293
LJ  -0.14344354416062211   -0.36595841936932116   -0.092944145394788388
LJ  0.080272019036730841   -0.4836625497882579   -0.069616922650936067
LJ  0.32781660030648158   0.4260194781639709   -0.32632414832069556
LJ  0.11194507751141819   -0.40419928663772181   -0.41925227537827703
LJ  0.27632233495738628   0.48639449563638343   -0.13247407437946931
LJ  -0.34273891769193987   0.31875576393220417   0.42577647369267291
LJ  -0.44711990647081573   -0.045136880196276742   -0.46914831186264894
LJ  0.44342360463286712   0.11890858012593376   0.45532783036333596
LJ  -0.40958008124658724   0.17728842845273918   -0.40494911286999191
LJ  -0.22977135038600752   -0.16009467032556687   -0.15877132478228873
LJ  0.0056240681892014569   -0.21907419286944785   -0.47731827528653187
LJ  -0.19302716072981599   -0.24934542220981395   0.28302255953047711
LJ  -0.033901901262764073   0.0032337363776931373   -0.47903079690723815
LJ  -0.060096043886564462   -0.2646218184049493   -0.26842753309103712
LJ  0.32742761723768282   -0.37281633150582483   -0.37126709673533803
LJ  0.24002295582364311   0.061127863673465802   -0.4102670161863074
LJ  0.31789136283772623   0.23903828390181844   -0.28220388889553855
LJ  0.15292515699885606   -0.043980725183515104   0.37187013386264978
LJ  -0.36296985635610901   0.093832052125639845   0.3965194440885379
LJ  -0.15769797161208907   0.34148343555967431   0.35887214747639329
LJ  -0.25674974140781104   0.47056218616564643   -0.46057922392107586
LJ  -0.059387137183932813   -0.46591537786712822   -0.24406582022446244
LJ  0.4797202722863172   0.01377922538753084   0.26416589865339729
LJ  0.075763980805948525   -0.41444591177189266   0.37518155362143391
LJ  -0.22180488123060044   -0.35442039962618438   -0.34398918440080134
LJ  -0.14879006247187579   0.30043904480037392   -0.43772139767766333
LJ  -0.018586092303757133   0.15885625707002629   -0.3538833635095805
LJ  0.21721082229930025   0.24781047066369638   -0.44022072735754286
LJ  0.036823199058031809   0.33267731675206286   -0.29178047678641095
LJ  -0.4894325256755423   0.37821731359193722   -0.24632194572955948
LJ  -0.32718891246196141   -0.41399647039267456   -0.2007197642908804
LJ  -0.38956321038571234   0.4603370647490464   -0.074863589464355479
LJ  -0.38420005456397954   -0.40016708400709644   0.097249719584807451
LJ  -0.18572635391918141   -0.36493711649021637   0.13051071589896338
LJ  -0.20886668402998065   0.36684934849636586   -0.25366503649524247
LJ  0.18024822798391027   -0.36404957874941696   -0.213903482879688
LJ  -0.21655402978045832   -0.13702512068872208   0.087001131620378341
LJ  0.035685244176962484   0.3502124465932831   0.33262713760995605
LJ  0.01959245021013381   -0.34488887578571614   0.099630692212846261
LJ  -0.47836139432758118   -0.18381776840035599   -0.1794420666219752
LJ  0.20708369876495655   0.40438324519807411   0.046151243012675175
LJ  0.37198075487491117   -0.27573525739165999   -0.093397718426820556
LJ  0.40385703275646306   -0.1716715958902095   -0.44091399933245201
LJ  -0.21395782682995229   0.10852135796652719   -0.47474823832865326
LJ  -0.32709146695538543   -0.29167476108258256   -0.038387544668967308
LJ  -0.35573166906433157   -0.0225433188047807   -0.25139936624281795
LJ  0.29340377647482352   -0.15289378125094813   -0.2388893930500787
LJ  -0.027180613507877895   0.14305186037263157   -0.12718455699023848
LJ  -0.25956526904622701   0.0067037854351874506   -0.066687854575899583
LJ  0.04818060391518704   -0.27859053975965942   -0.088531451123891908
LJ  0.16703388052153459   -0.12266299625958681   -0.059486549228981313
LJ  0.40500613431836713   0.044546069689131093   -0.2730798128861941
LJ  0.054460455143682078   -0.062327140318514565   -0.3104058749796057
LJ  0.1528693138651927   0.11573655449436158   -0.20212005536926761
LJ  0.35996087225765905   0.35392294053747209   0.1665072968538221
LJ  -0.21158946971023859   0.3188944531743329   0.011094969028031643
LJ  0.19222480476824713   0.24289634116696848   0.210378709788344
LJ  -0.2207276000680716   0.12546859627300991   -0.26072914038805511
LJ  -0.047887723970194349   -0.06307708312693712   -0.14815903959140672
LJ  0.029436090052539773   0.4532817723336437   0.15012924730105934
LJ  -0.3012078534471655   0.40252891425656107   0.17658402000808332
LJ  0.15177660860898959   0.2928203583823677   -0.12058165476229686
LJ  0.37029973460778964   0.24786384007487658   -0.085540497854857678
LJ  0.44150923580596024   -0.46107453932045989   0.010709776782902155
LJ  -0.026415047055003294   0.35209184063697468   -0.085358249237138875
LJ  -0.40983127636236322   0.18484130496171505   -0.15850674604827511
LJ  0.42730687496949749   -0.45504876570261987   0.27874928592728138
LJ  0.44562612558218501   -0.31796319661016553   0.42896787397850705
LJ  -0.38518120261271238   -0.23014288387003834   -0.35440932185090568
LJ  -0.36497617018729106   -0.43526131018375686   0.36387071678735677
LJ  0.059959518468886912   0.3934821730272956   -0.46755635004618451
LJ  -0.011393455892117651   -0.12984634155233918   0.046078648885241318
LJ  -0.12901552600801697   -0.45550724833085715   0.32655389288062792
LJ  -0.28077131261362592   -0.29790766973790977   0.47250381051037954
LJ  0.069756959339801333   0.1684761230758533   0.39763131274469932
LJ  0.20681331481905554   -0.36830618865556575   0.017647739736291988
LJ  0.20517769933502655   -0.46090502349048879   0.2064665997838665
LJ  0.25495595989585973   0.49378618211301145   0.43900763607082782
LJ  -0.45295959940130731   -0.025770676704318995   0.0020500124593588833
LJ  0.35943773550825997   -0.098948866573012648   0.11893966469673253
LJ  0.38734610954882776   -0.14448135447676536   0.31896235661240541
LJ  -0.39924785004387525   -0.17767992886979142   0.33567207693777329
LJ  -0.42179246222092182   -0.16207220668974107   0.1279221081592056
LJ  -0.26274339740614977   -0.026750752129014215   0.2453312741640073
LJ  -0.20443599850008753   -0.073128381077742735   0.42687980017082838
LJ  0.25335780614740849   -0.24363016805688309   0.40114848016897581
LJ  0.15467360211904757   -0.21579398721979207   0.17132659946026799
LJ  0.30810071186396748   0.0085313005378215515   -0.090605447240778902
LJ  -0.03378765809246384   -0.11296022905255322   0.26621026633305617
LJ  0.42026558744228149   -0.28025758369909615   0.15540821044665482
LJ  -0.40802328446712599   0.2103024731605963   0.053842592897282347
LJ  0.47873767600153821   0.22431795406085528   0.27546970824157047
LJ  0.3594062886580609   0.16451729240584895   0.13012948230629254
LJ  -0.31643986379712585   0.22080218157017895   0.23189579576429609
LJ  -0.13757367367305673   0.1185595270085649   0.05035763398714517
LJ  0.030158782781287995   0.25815216056576606   0.068145844293513474
LJ  -0.12011589124747668   0.26108351969472932   0.18430867244414459
LJ  -0.13711410063845519   0.101984291085576   0.33845761481491443
LJ  0.093138475908026777   0.053007255562849284   0.021577150892273321
LJ  0.21889096056909252   0.030627619124770047   0.19968623487282489
LJ  0.0097437952139602171   0.091245916065849794   0.21511251732383244
LJ  0.26098177025557234   0.12870459751769389   0.37840981234922855
