108
#Comment!
LJ  -0.4482123201726595   0.26581991834677593   0.47986277824848483
LJ  -0.19497166028755999   -0.39128913438863278   0.43171553668016283
LJ  0.3957817178038936   -0.23989330914719406   -0.30927147543060196
LJ  -0.46177688264105854   -0.38195225690396228   -0.46105243756837844
LJ  0.10277600820534488   0.45140510883640822   -0.4446393757807911
LJ  0.071058915817284643   -0.34520248215170307   -0.49064895383830925
LJ  -0.027975796918277437   0.40042659414906295   -0.25323067013499873
LJ  -0.19255499762417697   0.43977205483753318   -0.43567207998021279
LJ  0.071203148578051129   0.29413372872752636   0.33414396335420521
LJ  0.2215742030956826   0.28996396575659272   -0.2448178960901444
LJ  0.14007484618381671   0.41274545105326915   -0.091234512109835644
LJ  0.48026884316980645   0.34725785109401619   -0.33260655391602101
LJ  -0.49915532566032933   0.039312517042530165   0.46804628216297073
LJ  -0.32545269138799787   0.030789070904936707   -0.37385887942293766
LJ  0.38591529380584616   -0.10723928570905356   -0.46245661508297409
LJ  -0.30850338472153055   -0.21915276029138084   -0.33893870617001309
LJ  -0.23200211963249989   -0.2078452178321121   0.43965999545032036
LJ  -0.26251902878470101   -0.22560227536148991   0.2474263140860597
LJ  0.19166954094893976   0.1374033321528802   -0.40616864465765173
LJ  -0.078334515751746964   -0.41900610148113659   -0.35551934284711534
LJ  0.047798613780271421   0.065296391042675012   0.42480290482327193
LJ  0.40476927075670111   0.14980456935003067   -0.3755218981161258
LJ  0.21782002616278873   -0.048012091798058043   -0.32772257421461487
LJ  -0.14829667205014965   -0.049768024230014377   -0.40930519102778284
LJ  -0.32682444844926012   0.30114459873927141   -0.32543971106654124
LJ  -0.27661545747531696   -0.45720309102787715   0.22919978216069647
LJ  -0.47183572673195778   0.25593764513510264   0.011962141164523602
LJ  -0.38987948497092134   0.43741426821670848   0.39919714480621094
LJ  -0.10806169749500924   0.094693252844876077   0.016704274460523527
LJ  -0.16475121410400292   0.32205649866199448   0.40335559900973439
LJ  -0.45450655432428916   -0.47063852131028133   -0.28255841961377853
LJ  -0.40723859887475433   0.3914487906037894   -0.13291790458779007
LJ  -0.0014053831573450015   0.24520355606331584   -0.12251664390577484
LJ  0.30415372211325437   0.26123304619440574   0.42207965371571576
LJ  -0.042546064752144862   0.48902832068277186   0.40460213733670403
LJ  0.3202718505033228   0.075177280010884834   -0.16746792825085879
LJ  0.34423892284056717   -0.4282022712023677   -0.18156736925172867
LJ  -0.46378267752984209   -0.074324554536270418   -0.24092188505253481
LJ  -0.39867013896691761   -0.32634043956301056   0.098321218333530525
LJ  -0.30353087234915394   -0.26838051048003725   -0.13046946506174939
LJ  -0.25865072126888472   -0.49832710434697047   -0.25856295909147847
LJ  0.024914647943066814   -0.36870692934735255   -0.15302429821057009
LJ  0.0091627458134983294   -0.20522021101136001   -0.046109835181888367
LJ  -0.10906093500874055   0.39376715887019187   0.032054806477755306
LJ  0.27746164591269956   -0.3329127784309549   -0.014087437094322766
LJ  0.48089019628445334   0.028039358072792824   -0.044803542882234156
LJ  0.47811428896762187   -0.4849336409592151   -0.0083613243491137638
LJ  0.49258081463325792   -0.29799574183436683   -0.077223840265999877
LJ  0.2594759464098596   -0.35699605704186999   -0.40642716712860055
LJ  0.02370297991173248   0.066039907968736739   -0.37497052946382642
LJ  -0.32309400835225172   0.17143232415653967   -0.089568660069008196
LJ  -0.27934962093409693   -0.04552490927994883   -0.14717250302817433
LJ  0.029657284877533351   -0.12137582195401714   -0.27764201925295495
LJ  0.18533159244168412   -0.084000962753865704   -0.070854534903646266
LJ  -0.1648903845835176   -0.00041865893247907809   0.18935200143157424
LJ  0.38241650124938259   -0.22021366474062334   0.16044332183378543
LJ  0.14845766381104009   0.49924083262419827   -0.26726860673905689
LJ  -0.49675454061653879   0.15790696416055469   -0.20067570266091025
LJ  0.17927459135838678   -0.19882299061073186   0.12520554858429772
LJ  0.20528295564577495   -0.29489914615246465   -0.23648690578817122
LJ  -0.32035943195926952   0.39325934457112971   0.093264661634776161
LJ  -0.1680876596041479   0.15432060169535097   -0.26508424488981741
LJ  0.21306967427419282   0.19636901671920803   0.18881339365797287
LJ  -0.23053645709794429   -0.16589723999539407   0.064006014211764981
LJ  -0.13996199620620922   -0.22418963884990942   -0.21160535350595139
LJ  0.061555407395882986   0.30559095624128907   0.10091256666492456
LJ  -0.18252373093874263   0.35164268015454142   -0.15095978524695267
LJ  0.36882951191889918   -0.13591758766007755   -0.03300312077955897
LJ  0.37542856538864439   0.15184083940285975   0.057994996514187103
LJ  0.39929389625336803   0.35247497997269156   -0.13722582666881114
LJ  0.18184660431369748   0.1916162728908912   -0.076421602244444206
LJ  0.28541255221571499   -0.031221623535804533   0.12142443610393774
LJ  -0.48832745620528933   0.47504416943386452   0.19431108233277417
LJ  -0.42961445009038068   -0.16437691741505348   0.49493438095300712
LJ  0.17240400310388199   -0.16772330882936662   0.48180275261378352
LJ  -0.44894783711299457   -0.31645921773784502   0.33306205868034061
LJ  -0.28717984156074261   -0.47233883298928847   -0.021999450694657915
LJ  0.0044113504839147812   -0.49632965441612292   0.20327799056687298
LJ  -0.12648642763093793   -0.39305973769011698   0.085169021563076638
LJ  -0.066834859996417195   -0.28320340393685495   0.33459389138765921
LJ  0.13387771945561511   -0.25372932665520115   0.31058855864133328
LJ  0.3683462873652959   -0.37410642301396529   0.39122915607810216
LJ  0.15120062133273199   0.47196257002139286   0.36816867693306682
LJ  0.32673244979527533   0.45476514060552403   -0.41445987180867683
LJ  0.34084096815028814   -0.17601515232163339   0.33273619562734918
LJ  -0.34217111175347215   0.041670799744655367   0.060760210845298174
LJ  -0.29684935864740503   0.16956021857944373   0.31781826593655849
LJ  -0.41980643133284601   -0.055257900235297641   0.23884185260354074
LJ  -0.43603103186804809   -0.15511643662606622   0.034717896361392449
LJ  0.07331145023417418   -0.42025135007112285   0.03946345208840879
LJ  -0.28859541092461694   -0.019977832082356841   0.40116973687423468
LJ  -0.028353794743559726   -0.17878761974125129   0.1752785845164414
LJ  -0.020823088314756804   -0.10365049980845487   0.41363469119316859
LJ  0.11121278719025342   -0.025498307645469582   0.24727154882822636
LJ  0.03228768010930598   0.26763748363202283   -0.48181829506195029
LJ  0.25470362929647911   0.078774241780281307   0.38560833604023648
LJ  -0.23364402000252157   0.20902707770661647   0.12107069611658863
LJ  -0.46517982338112851   0.28467445582513945   0.20834124552873359
LJ  0.43729388169912092   0.11108260603759447   0.25395222166121972
LJ  -0.038951454408212814   0.02773221088954916   -0.1547003950691575
LJ  -0.04663360736333301   0.15139230793009228   0.2412067328016875
LJ  0.28281115864100032   0.41586270764540062   0.058976939409003268
LJ  -0.12575482445297426   0.34844863391024877   0.22210585390704393
LJ  -0.22224010986366474   0.17934345242996688   -0.45625001956177097
LJ  0.09819089436920618   0.059117662686009126   0.038251603261201014
LJ  0.27728617632401903   0.37692344170445313   0.24989864079543095
LJ  0.25411393545115729   -0.38466762201646182   0.20255129679473902
LJ  0.39453815722499463   0.43414834962609938   0.3879479209990403
