108
#Comment!
LJ  -0.44825058244172256   0.26618261526122128   0.4800237602203643
LJ  -0.19504880807714517   -0.39146986465327294   0.43121695635197715
LJ  0.39592019927877092   -0.24017388213119789   -0.30916271878700724
LJ  -0.46159634151259521   -0.38178627903589424   -0.46111755999082865
LJ  0.10293033368120166   0.45128063319917949   -0.44433351617346512
LJ  0.070827352657662324   -0.3453144494977568   -0.49068312897025673
LJ  -0.027671480421521649   0.40032339993195259   -0.25331597544885975
LJ  -0.19259855448947472   0.43939727933389167   -0.43590346835593091
LJ  0.071019291723650457   0.29403681755841232   0.33452325869424482
LJ  0.22176955047803762   0.28966879151856906   -0.24464025606930614
LJ  0.14012087434482548   0.41272740636728161   -0.091189284410874316
LJ  0.48035341382818714   0.34720768944391367   -0.33242394163127087
LJ  -0.49881502456358379   0.039178632015675549   0.46780482534939183
LJ  -0.32551002747389718   0.03087832119987434   -0.37377961213598276
LJ  0.38579060308475466   -0.10686047306444164   -0.46244632226635568
LJ  -0.30834370266506772   -0.2190793434541615   -0.33868761738559217
LJ  -0.23198176010667174   -0.20748184502458375   0.43950897933201555
LJ  -0.26255207417470433   -0.22598327859914752   0.24751364559918351
LJ  0.1915996465275521   0.13737927089941371   -0.40626913671588116
LJ  -0.078464531809584959   -0.41923860953860259   -0.35541713200463176
LJ  0.04744705364329467   0.065246151133106237   0.42504507603174135
LJ  0.40498056223134321   0.14998487362947041   -0.37570366056263338
LJ  0.21795509033784405   -0.048077848387875141   -0.32788452324924855
LJ  -0.14855623077614807   -0.049982569751909352   -0.40912788798404154
LJ  -0.3265791618948834   0.30101055479899386   -0.3252959636098724
LJ  -0.27671503037974765   -0.45710664110880617   0.22916781379609935
LJ  -0.47202017795087481   0.25612185423250244   0.011986078448937313
LJ  -0.38959243219535405   0.43728906555416763   0.39907416816149527
LJ  -0.1080240601544134   0.094308278767874301   0.016472101506617945
LJ  -0.16489311662194056   0.32240487154854713   0.40335510369744459
LJ  -0.45481568449453569   -0.47117735109966047   -0.28268584528714269
LJ  -0.40721475195802187   0.39146126780726453   -0.13267124907421432
LJ  -0.001574741694276513   0.24555325590527538   -0.12274751083360559
LJ  0.30406844511606046   0.26143580684934964   0.4221677699032943
LJ  -0.042919982658672966   0.48917666596858489   0.40452010585078968
LJ  0.32009448295260923   0.075258435810437688   -0.16774758758889133
LJ  0.3444532649756879   -0.42817080165147886   -0.18165324816580572
LJ  -0.46360202279346496   -0.074214137392605517   -0.24079406974783266
LJ  -0.39824338971997869   -0.32609855479738009   0.098717980439280192
LJ  -0.30365433758717775   -0.26846047908449422   -0.13072631400177362
LJ  -0.25849323313327627   -0.49836548182816098   -0.2589058403795258
LJ  0.024856578999613618   -0.36874887399512812   -0.15343683884302692
LJ  0.0092463589265760239   -0.20546894277043112   -0.046454544096653699
LJ  -0.10929700683849401   0.39352651745163164   0.031793734191801815
LJ  0.27703736609238538   -0.33266830957910348   -0.013898483003071997
LJ  0.48094344840865483   0.02809150346207295   -0.04471762306368951
LJ  0.47843435426113368   -0.48491482785068657   -0.0080567905263388626
LJ  0.49248313972516372   -0.29807965054988378   -0.077214494547434898
LJ  0.25952907518222279   -0.35706871798897644   -0.40647933355547822
LJ  0.023931150009920545   0.065857844669988605   -0.3748799595863252
LJ  -0.3231126858709083   0.1718660900530182   -0.08968909941452391
LJ  -0.27966426390335231   -0.045511621521374196   -0.14694055676003759
LJ  0.029944794506234721   -0.12108967564412405   -0.27760250436898126
LJ  0.18568972082431481   -0.084093056205521266   -0.071127038142006729
LJ  -0.16490912089497364   -0.00026299310073529299   0.18940072823026669
LJ  0.3823841730023127   -0.2202999951535034   0.16011959631905573
LJ  0.14834421337823278   0.49941549860310169   -0.26744238549125149
LJ  -0.49668982427908193   0.15785702181887862   -0.20045201152279299
LJ  0.17923892479341014   -0.19868792851881373   0.12522280266061842
LJ  0.20548916384189347   -0.2948978547244529   -0.23641696309439622
LJ  -0.32068510254886862   0.39342012674696186   0.093116003014366205
LJ  -0.16813686851665705   0.15406391243008366   -0.26532838030579098
LJ  0.21303254136563979   0.19629451957973509   0.18883200469424463
LJ  -0.23036146897098508   -0.16565334613984872   0.063852127344898826
LJ  -0.14009907011820733   -0.22448139917005236   -0.21172645955159972
LJ  0.061585484448498783   0.30571042818696081   0.10090085253075053
LJ  -0.18232484052086906   0.35144696163459671   -0.15056413553245615
LJ  0.36877177333907468   -0.13583569837570078   -0.033050883140984998
LJ  0.37516152082605392   0.15180692227321177   0.057439873476413154
LJ  0.39935169275896282   0.35244556394850768   -0.13720794419185861
LJ  0.18162839175035247   0.19200240324120343   -0.076151379265066405
LJ  0.28537638994551229   -0.031215682434034175   0.12115495036395808
LJ  -0.48824285364504805   0.47505183952934954   0.19412616643794642
LJ  -0.42999850932120959   -0.16437328118856478   0.49475559625893328
LJ  0.17238198997453821   -0.16757269731152216   0.4819905574945838
LJ  -0.44902994190457901   -0.31641329106745092   0.33290328017144943
LJ  -0.28694713572750619   -0.47261206979100712   -0.022163916112424228
LJ  0.0045251991948025028   -0.49625289452919946   0.20367494226489929
LJ  -0.12657762131864311   -0.3927071018829808   0.084961498145478764
LJ  -0.066756118310564674   -0.2833147555344292   0.33454410220591935
LJ  0.13374769293494523   -0.2538606226934762   0.3105586795719556
LJ  0.36836554340898447   -0.37435392889835711   0.39125206976907312
LJ  0.15142409828151282   0.47204450798316305   0.36832668925029555
LJ  0.32666448529959774   0.45475021632723656   -0.41432028443822111
LJ  0.34084147199351689   -0.17602474276192051   0.3328342678447519
LJ  -0.34240937684177308   0.041647006821900485   0.060761336144168614
LJ  -0.29659513599052245   0.16956864493184731   0.3177016986743294
LJ  -0.41944314338399113   -0.055294206824167233   0.23901782725651105
LJ  -0.43606329740298883   -0.15515931092293694   0.034838052969766609
LJ  0.073613050793969473   -0.42016976691925162   0.039695378494192406
LJ  -0.28866808271787081   -0.019842513315162954   0.40122014807314599
LJ  -0.02882581444737671   -0.17900990062123795   0.17526799130231754
LJ  -0.021110727018534576   -0.10406853881929867   0.41395381870327624
LJ  0.11149988208623005   -0.025273621673118467   0.24719376461540238
LJ  0.032138645138269764   0.26784027197493543   -0.48166416098508757
LJ  0.25452555367346941   0.078834838899174642   0.38540790209094744
LJ  -0.23333213484666654   0.20886443312244943   0.12109339718600418
LJ  -0.46487760546049289   0.2843888608941319   0.20823038709722175
LJ  0.4372716874226214   0.11116449473514629   0.25431214054661933
LJ  -0.03892053839682369   0.027665501396563194   -0.15494265718080494
LJ  -0.046683401981024122   0.15174194013218217   0.24120878589518543
LJ  0.28282103586883389   0.41613046397657893   0.059238958755815418
LJ  -0.12592823107709814   0.34805056534770851   0.22222991574921447
LJ  -0.22229408401125003   0.17956046374277992   -0.4561877965942277
LJ  0.098327909886236409   0.059073213482898887   0.038386713984573349
LJ  0.27757866881314519   0.37702508563355819   0.25016788374719867
LJ  0.25367395602820919   -0.38459492691944491   0.20275480034945068
LJ  0.39452395594399292   0.43419903378359276   0.38789094691217152
