108
#Comment!
LJ  -0.26557072276134447   0.31781004435412591   -0.3967447973867107
LJ  -0.16621937850881649   -0.26245693676064763   0.47974220570291781
LJ  0.25580244157207382   -0.34301787260664407   -0.39931269560779209
LJ  0.36578526087263463   -0.17051006808974054   -0.41629160056507353
LJ  -0.12987683729704783   -0.053527277306405351   0.48997986471185961
LJ  0.088827256161697635   -0.3298889435130018   0.43401748765247872
LJ  -0.053313239787276152   -0.34607168250447301   -0.37344243006505706
LJ  -0.0025961268300486564   0.47250917390553565   -0.48638032130307451
LJ  0.19129427759703549   -0.3856093066459082   0.2511052259703665
LJ  0.27645837805769596   -0.49495411997654459   0.44548899529996561
LJ  0.38255196006538672   0.49751473218762593   -0.37140770747150387
LJ  -0.36207112907621863   -0.27356779348884369   -0.47472452661302666
LJ  0.44415762855542523   0.011744801682185578   -0.33472918365450094
LJ  -0.13675418636032938   0.0334853502492721   0.27494921083269092
LJ  -0.43961646520548092   0.07350092453491143   0.027900556975603071
LJ  -0.48307235500390056   -0.16899835738741265   -0.26631804310872992
LJ  0.037678308851143746   0.035477200471849643   -0.46364536161070935
LJ  -0.37022384719413176   -0.039693015189619284   -0.45285131302982934
LJ  0.045270982703227651   -0.031605311827071193   -0.22274772047580185
LJ  -0.014454248882642462   -0.14980953505075992   -0.38870515384012633
LJ  0.20231216872418517   0.0051721747922542248   0.33265372888912403
LJ  0.26290222789811257   0.16614479350272879   -0.48722953768019106
LJ  0.31635461288014349   0.30438053875654947   -0.29091021108681969
LJ  0.028343957998638186   -0.12875890813711105   0.39571067199107374
LJ  0.48019514009876069   0.22300475075951362   -0.45296837046196742
LJ  -0.26373718052543099   0.097687905261356012   0.4659195352207352
LJ  -0.11574102112835316   0.40989026854750327   -0.3304843096671235
LJ  -0.063921915091353004   0.25477683069719409   -0.475980428274003
LJ  -0.25770760389731556   0.19264836917606207   0.20128591813051339
LJ  0.060258953509140761   0.45342044027981304   0.32261937445653188
LJ  -0.2401285645665317   -0.42388722142469648   -0.40046761834918004
LJ  -0.082917634296702764   0.14686312959397915   -0.26395119374974868
LJ  0.056515003775398698   0.19109871543519236   0.37276109551742659
LJ  -0.45499163128373432   0.36916213432419781   -0.29027265649012229
LJ  0.095410675055212973   -0.4415440252153871   -0.25649623313624192
LJ  0.42493283403931481   0.044708370677224545   -0.15462686205222625
LJ  -0.34266214277101686   0.28814156752546394   0.054661349005203606
LJ  -0.23710957750371917   -0.17730744454591174   -0.31320668605536228
LJ  -0.49699008622912461   0.44228141979082225   0.10166088691170086
LJ  -0.25578081642946116   -0.35861710409094494   -0.19063445687547051
LJ  -0.34947055939442029   0.46073060958872536   -0.086467000626647569
LJ  -0.090963345315266023   -0.4740078460672002   -0.12167138857377247
LJ  -0.31163947616111426   -0.41243443076010894   0.081461142802484066
LJ  -0.0094775466594461451   -0.47710903028510954   0.10606327869206247
LJ  0.21669377994533781   0.42181644310742239   -0.15999872354267342
LJ  -0.28977402628862958   -0.21584741385111542   -0.063067339483293433
LJ  0.44308033040781902   -0.37590025561447782   0.053727439811108148
LJ  -0.49099815700492977   -0.36241067311737246   -0.31466831318845662
LJ  0.13387708516462229   -0.24818156170601904   -0.24718195239170834
LJ  -0.34189745931169074   -0.0065054045285437108   -0.16408569152357114
LJ  -0.43638590383114384   -0.31757861118983322   -0.1110240255957753
LJ  -0.21726971522207433   0.018311451278982115   -0.33104172436542434
LJ  0.24439280522895776   -0.31312277389279014   0.044389974558671802
LJ  0.067156928711965366   0.34764751573753711   -0.23804340736778051
LJ  -0.063471048664138996   -0.076070979383272411   0.047307698429232957
LJ  0.081009550886068218   -0.36191146224583681   -0.049717661466440188
LJ  0.38025052658897951   -0.20373673828394742   -0.12841869078998561
LJ  0.42722063598191257   0.26817411292187182   -0.13141956510570033
LJ  0.1101051646794413   -0.16980771014497884   -0.037359467342832166
LJ  0.00011317452899857158   0.095144167265329649   -0.07294316651870679
LJ  0.49629136029194398   0.23039864552707129   0.18039653073506093
LJ  -0.48094240863880211   -0.12209640249917346   -0.032700723179268525
LJ  0.32071425589158647   0.27750034994010198   0.058230498521028198
LJ  -0.06343889841853452   -0.26910821569638316   -0.15966271361405826
LJ  -0.14496746203886096   -0.07634653590480954   -0.14553954782382572
LJ  -0.17965104633550014   0.40295078572824389   0.050596699208885418
LJ  -0.23508859971112206   0.30078403866189085   -0.14078986778752461
LJ  0.21483117963124537   0.0082886490150473231   -0.034642508924311567
LJ  -0.40270322511677309   0.17956614172561153   -0.2655713046440254
LJ  0.43287699704342725   0.47214435645764202   -0.15353084570699946
LJ  0.17047450576112819   0.18713166345883925   -0.17315777507489763
LJ  0.36922237305673777   0.10211639344169277   0.11517165006281055
LJ  0.40635402394184628   0.3834102840788719   0.28929998078046792
LJ  0.43167929238903519   -0.36880798439630513   0.49385404723261878
LJ  0.26551372767268089   -0.25754641559515307   0.41941799102736943
LJ  0.48176390228338933   0.41409189455263862   0.49544756263377787
LJ  -0.28339586324139632   0.40278756218969008   0.23091209288590198
LJ  -0.25102610767510175   -0.31305523603524676   0.27733676821290831
LJ  -0.3723081196084026   -0.47435270812364722   0.41139473506261914
LJ  -0.14957380908504089   -0.4612771664786055   0.36157743946464493
LJ  0.17592169144418457   0.45278027700452289   0.16620101510312818
LJ  0.30689966311082323   -0.23311041463991125   0.21722032294664687
LJ  0.1014638329395396   -0.19917623020746886   0.15573987828781879
LJ  0.40577346068673076   -0.41745309247333418   0.26861776249547631
LJ  0.27170662088648601   -0.37118730921791737   -0.1457435955408308
LJ  -0.27689184712065745   -0.12275788904412632   0.37327201417553324
LJ  0.25750099619482025   0.0032930622988986405   -0.30043522775098003
LJ  0.3723397782934294   -0.011644208363034174   0.47593588451315527
LJ  -0.38022041564219544   -0.23765344294668495   0.13036199690656244
LJ  -0.10950161219079373   -0.27535971159463085   0.041675518380347679
LJ  -0.28332428295875012   -0.057958238292575875   0.13281944520485975
LJ  -0.1139394811163025   -0.15389889597777409   0.25449920011314203
LJ  0.21675069556324575   -0.042401872327066138   0.1495910928348245
LJ  0.45914246166515582   -0.10580432272618634   0.18225569315733228
LJ  0.17581023278692381   -0.14494565657848202   -0.45094195869387943
LJ  -0.46836286491360968   -0.25188245936238907   0.32596520559159636
LJ  -0.41124684726363803   0.028862438472226078   0.34917083377312397
LJ  -0.38142094342783961   0.24290791584223048   0.3630702065192154
LJ  0.4014742652700658   0.15082581950656077   0.36228355272105833
LJ  -0.20394894071748534   0.10848671485800251   -0.0048694467841995642
LJ  -0.05815847747997252   0.17003555302908063   0.13132686472311608
LJ  0.033491829889097498   0.33076186061410445   -0.0438311660927556
LJ  -0.073740328234996697   0.35164343400712406   0.22579535001110232
LJ  -0.16025458171209303   0.24668973990755161   0.36730406429308438
LJ  0.14408593847996928   0.16300510735453427   0.067853575333626071
LJ  0.1978339543877273   0.31789702441696455   0.35276138171238275
LJ  -0.02843585679447249   -0.33522009395972568   0.23783183963310517
LJ  0.12047687779595562   0.32588666879074901   -0.43554011771239121
