108
#Comment!
LJ  -0.26528445349191554   0.31783703579277661   -0.39657832039344942
LJ  -0.16596253701788485   -0.26248848109437145   0.48029701007985587
LJ  0.25579093647385071   -0.34288613174887961   -0.39941294867666938
LJ  0.36617681223083087   -0.17042752843345754   -0.41604139299587645
LJ  -0.12983844385513268   -0.053589005237424284   0.49010625119980744
LJ  0.088745056789647336   -0.32976051261737827   0.43410388592757432
LJ  -0.053562649742138549   -0.34597270964209814   -0.37331437489506053
LJ  -0.0027406427736217536   0.47288856921413941   -0.48623795615395948
LJ  0.19156272647014763   -0.38562506534135382   0.2512863468714388
LJ  0.27678505811683812   -0.49496386753391786   0.44542207939173245
LJ  0.3823471863288132   0.49771188688182927   -0.37116135989852311
LJ  -0.36235853711523591   -0.27349866563977221   -0.47469819423512111
LJ  0.4439426453573927   0.011898791898811437   -0.33493754703892359
LJ  -0.1368379889012232   0.033937551297381525   0.2748692667817339
LJ  -0.43956648682270122   0.073593260350051884   0.027653927293193083
LJ  -0.48311018848701903   -0.16892996122424814   -0.26635681779521092
LJ  0.037355482748863258   0.035646979484573529   -0.46357483800284938
LJ  -0.37014319435183096   -0.039843241065686701   -0.4530040340603107
LJ  0.045072990903179046   -0.031593988468665672   -0.22273864777723396
LJ  -0.015012210535510967   -0.14997471771703957   -0.38894279033361001
LJ  0.20244568000895694   0.0052916079884492854   0.33273341497427644
LJ  0.26322230302534699   0.16595876647949906   -0.48715705463881331
LJ  0.31619370325663382   0.30425104568240907   -0.29084042646102354
LJ  0.028188793455434003   -0.12835034455543615   0.39573882117980191
LJ  0.48036077521116022   0.22316815721861272   -0.4530725910290786
LJ  -0.26366101578293555   0.097769652632281531   0.46623159353855281
LJ  -0.11572044880237625   0.40994472228681567   -0.3304095260054169
LJ  -0.06378404822358788   0.25469772490692222   -0.47598363146935596
LJ  -0.25776284357038992   0.19294583069562313   0.20115867954709177
LJ  0.060424215607420985   0.45312935257764642   0.32222119498620133
LJ  -0.24023916360118316   -0.42415297001523528   -0.40059363187583169
LJ  -0.083169438257661252   0.14665378177086011   -0.26387425534604964
LJ  0.056740058131219677   0.19099950484294312   0.37275392035015253
LJ  -0.45500009901187605   0.36936629920866887   -0.29034425165535022
LJ  0.095526966749384101   -0.44180036235538489   -0.25637547814305922
LJ  0.42507466266633404   0.044650191545706638   -0.15482959074864575
LJ  -0.34277159594953044   0.28845446905549987   0.054396240386500157
LJ  -0.23689725085777263   -0.17721492302344849   -0.31324857715219867
LJ  -0.49726943979200527   0.44235468276137102   0.10166633400086134
LJ  -0.25568770667628415   -0.35885577008150926   -0.19075166084879608
LJ  -0.34918846998362496   0.46057652140028327   -0.086726793143487621
LJ  -0.090827357358506292   -0.47427230792821051   -0.12131090484595411
LJ  -0.3118942591309361   -0.41256664964228779   0.081332834101617929
LJ  -0.0093688940125711204   -0.47721417349707895   0.10584138436984845
LJ  0.21651996211573116   0.42194608173251974   -0.15985042780909448
LJ  -0.28982384719763449   -0.21566797236178512   -0.063072776829179458
LJ  0.44334594279128187   -0.3757824694304614   0.05408273072474333
LJ  -0.49066798210803997   -0.36237469998392197   -0.31496822118757206
LJ  0.13397751788027332   -0.24820671588997331   -0.24737921107550992
LJ  -0.34175938658164023   -0.0066672790324686154   -0.16422897200715972
LJ  -0.43652287696724706   -0.31777057825440019   -0.11091526583937918
LJ  -0.21685964161115276   0.017726661580432394   -0.33092091690292857
LJ  0.24452490484911021   -0.31310036551638004   0.044349890773996654
LJ  0.06692577995313824   0.34797664842246884   -0.23819140014146301
LJ  -0.063391440441767657   -0.075993241042263349   0.04728278691938681
LJ  0.081083960127853183   -0.36191085015283669   -0.049861302505774314
LJ  0.38032121178967576   -0.20387070480464412   -0.12866761458985951
LJ  0.42703327692007215   0.26818169481581755   -0.13149089112148538
LJ  0.11014411238439993   -0.16974381813607284   -0.037422765112743714
LJ  0.00014646889442700088   0.095410452706256782   -0.073103564974754787
LJ  0.49618645535730271   0.23014763099447721   0.18072732967160296
LJ  -0.48110044886343428   -0.12195427656672328   -0.032441666405188856
LJ  0.32084694688821186   0.27733720627182012   0.058005173423548981
LJ  -0.06355743315255509   -0.26932001743639428   -0.15959129694046334
LJ  -0.14501872852931583   -0.076666520797310775   -0.14580285581465813
LJ  -0.17913621977212971   0.4029711895586725   0.050477311524413551
LJ  -0.23512710464654624   0.30061374757878984   -0.14115550421960682
LJ  0.214754733369768   0.0082123381929010211   -0.034559069871276063
LJ  -0.40291423235862062   0.17988631112329809   -0.2655959404722682
LJ  0.43292616301411402   0.47225957512122202   -0.15335671862883885
LJ  0.17038730899575275   0.18720521129961798   -0.17309201047966402
LJ  0.36961214332336439   0.10235570005455903   0.11503521673369711
LJ  0.40628613254542456   0.38336469308527943   0.28956226820951642
LJ  0.43177999130131051   -0.36881019514947877   0.49384952415135419
LJ  0.26543629336052466   -0.25737441988367044   0.41962710454240987
LJ  0.48186908696778985   0.41424585506375766   0.49541349301261073
LJ  -0.28365773155163582   0.40272614885058727   0.23074359415340728
LJ  -0.25116833445566134   -0.31303714544101274   0.27686064039410646
LJ  -0.37212938480776397   -0.47438202312505734   0.41142123522962781
LJ  -0.14944323857537856   -0.46108863503050274   0.36154046628542097
LJ  0.17588950319107191   0.45284902509914565   0.16625477034776318
LJ  0.30661853565751229   -0.23330313507613412   0.21734425835812135
LJ  0.10114415448134256   -0.19930073679458349   0.15544165256742068
LJ  0.40547284808378897   -0.41795915344361445   0.26884404872626649
LJ  0.27178710174037624   -0.37138275438908314   -0.14554818942481004
LJ  -0.27677028229076378   -0.1222277938370354   0.37348492645618797
LJ  0.25750843432288684   0.0032471725086047039   -0.30019286602690154
LJ  0.37219878175243465   -0.011833634822832688   0.47582352289001756
LJ  -0.38052801006555065   -0.23767977057331063   0.13004048681480965
LJ  -0.10955984136313038   -0.27524615850637613   0.041776629554342144
LJ  -0.28331805770351798   -0.058210707435146107   0.13289642280907252
LJ  -0.11398368151164143   -0.15397014019487329   0.25459392466609299
LJ  0.21707369388394884   -0.042548835604736643   0.14918883141175004
LJ  0.45910712675256521   -0.105878089617407   0.18229651034147079
LJ  0.17593969741542542   -0.14499688426198942   -0.45113571298537269
LJ  -0.46814248227060701   -0.25191978006454618   0.32594016908680795
LJ  -0.41168163617073528   0.029271247070531116   0.34953763884463607
LJ  -0.38130678914294097   0.24308382931572139   0.36325608679705812
LJ  0.40129381506555145   0.15106869554793428   0.36246644982247184
LJ  -0.2040037463247493   0.1085756488694877   -0.0049725111183038274
LJ  -0.058256015501820628   0.17001019319209548   0.13107411854687573
LJ  0.033479032842269357   0.33036442017992557   -0.043552451673314507
LJ  -0.073928947328376723   0.35147824002700445   0.22600649406105397
LJ  -0.160314720300608   0.24636519536280585   0.3679887407018152
LJ  0.14410847367227714   0.16283735254599704   0.067703162964198718
LJ  0.19804041048570395   0.31797061360623075   0.35249149754539294
LJ  -0.028403963370591034   -0.33557923278907764   0.23798516765904615
LJ  0.12040951333420973   0.32632494657063643   -0.4356397419283578
