108
#Comment!
LJ  -0.48482022893946553   0.2690262351255418   -0.30890799325434615
LJ  -0.22384104377188449   -0.46661683119716652   -0.45876396694606886
LJ  0.11634465089579001   -0.18948393344318204   -0.34946939758156792
LJ  -0.45741697091325151   -0.080637639051800936   -0.48415482266849769
LJ  0.050955428608980259   -0.35904041838704959   0.36123318370560692
LJ  0.20305052700948503   -0.25782784018609534   0.4735361772267962
LJ  -0.10753019127361618   -0.29816958874730431   0.46898898646656828
LJ  -0.095811358297346563   0.44233306819953078   -0.32024435151757363
LJ  0.30439726250467497   -0.47584671543520823   0.45263670847248016
LJ  0.44758721610727276   0.46642593500787166   -0.2983003942200681
LJ  -0.024937638768925581   -0.3539484896514043   -0.34867712275471291
LJ  0.30222667473085824   0.48282386264134974   -0.15783895012671559
LJ  0.36463034812639411   -0.035855989693455576   0.47431833757798719
LJ  -0.19250925026939331   0.068639802839060432   -0.45476108325655074
LJ  -0.24253587410234465   -0.14619198645058465   -0.40998267330437604
LJ  -0.37751786260502573   -0.43384575878757664   0.41221909759439695
LJ  -0.20582377103869842   -0.32151358781706318   0.28054633495196241
LJ  -0.07979542009823086   -0.19110423637074186   0.15038861777688411
LJ  -0.01918638703603226   -0.10879993089061897   -0.47551431679903466
LJ  0.15959586340168438   0.0018709148467303683   -0.44866585834377209
LJ  0.035174369574175197   0.14560785911029894   0.22595863176818001
LJ  0.41710852990269304   0.13129180743603763   0.38070832609490102
LJ  0.23460827547315441   -0.098617557637538655   0.33814937902339731
LJ  -0.17750787705557294   -0.094487239141082757   0.35056925865459199
LJ  -0.42441686377883725   0.16488555085003218   -0.48774342689230338
LJ  -0.10488541617375916   0.16840565245698561   0.38871252970539044
LJ  -0.38078441219058695   -0.41107237939039987   -0.16575428760607569
LJ  -0.34212197992693205   0.43867439390959201   -0.28602756758796205
LJ  -0.20142033309982318   0.095935665703434508   0.19764358451758998
LJ  -0.09108968885602324   0.33878577255814946   0.47014588027796844
LJ  -0.31843705264758854   -0.30993306201302712   -0.38883027003514969
LJ  -0.45479202087555415   0.12688500553916357   -0.066294135361669851
LJ  0.2032705875874761   0.16011545614710751   0.42262125714234366
LJ  0.17237299324018093   0.1282638361721761   -0.27401706257214176
LJ  0.12562564307969606   0.33682707075753265   -0.35192105155448483
LJ  -0.48211771933402608   0.34556325462940751   -0.11643955975680313
LJ  -0.17206347460367752   -0.33856271377339198   -0.20491185355950878
LJ  0.29778801809267269   -0.27084063340395298   -0.31866714118366407
LJ  -0.46360604441999759   -0.39389656604485929   0.23399427765364247
LJ  -0.45786427005570951   -0.19291376320137357   -0.099348012294762686
LJ  0.093309401859513308   0.46833237301072017   -0.19677455554737852
LJ  -0.080631057504960871   -0.13107299843507358   -0.23798927995154268
LJ  -0.37748541131298397   -0.095403112543778562   -0.27915042390825096
LJ  -0.16981218788462837   0.45838122550747235   0.057666511589586411
LJ  -0.012357610265850994   -0.30238947045882436   -0.023967630101998479
LJ  0.48649965518269467   -0.059824811112574053   0.054411492637743177
LJ  0.18879592688653327   -0.46750572211722974   0.0044920886752476755
LJ  0.40692972310932674   -0.34477150320720934   -0.089623384482018148
LJ  0.416883324409834   -0.11089503907579097   -0.28109213416861084
LJ  -0.19350186578625042   0.03968264161934161   -0.21567382671592206
LJ  -0.22444753174418536   0.0060171752357420696   -0.0029808052025062435
LJ  -0.49219892147360916   -0.31388150543679899   -0.28082300771478075
LJ  -0.023434720998192167   0.13977361337667782   -0.2068304667050046
LJ  0.35357459422259424   0.12204527773110507   -0.17860069649219296
LJ  -0.23900424100625492   -0.16663613681026984   -0.1363931391049929
LJ  0.21325069978604344   -0.27251122753743956   0.0092827712125323255
LJ  0.1645223596861328   -0.34043211483203861   -0.19148370180366164
LJ  -0.4751627540858222   0.074417581991124734   -0.27407194492193243
LJ  0.071337817995656971   -0.10522681940315104   -0.040046835891379952
LJ  0.22797334119465354   -0.033658661384191248   -0.2012560202490373
LJ  0.40092718709703612   0.47237184265743565   0.11739871448802321
LJ  -0.39998492416850839   0.30527007853187882   0.12057684424785374
LJ  0.25436416661158312   0.062924704898405501   0.21258903064274162
LJ  -0.21374999119327104   0.2288589542795175   0.03073261869912481
LJ  -0.06736058708180824   0.37927457728124747   -0.1168234888998404
LJ  0.032256058162084773   0.24041350199829459   0.046601879846420662
LJ  -0.28033524332409393   0.38877889876857019   -0.089393289983500893
LJ  0.34863072249304694   -0.1553744743857319   -0.082948410292449898
LJ  0.24695571778603895   0.333270990953695   0.037661045369437304
LJ  0.24083727624895257   -0.45702981708490437   -0.34832719437537318
LJ  0.13266032872360944   0.2733860630391125   -0.12929452182246823
LJ  0.34964917231428583   0.14786078847671016   0.03117654623239376
LJ  0.17765286578969647   0.30381543732751037   0.2503474009281117
LJ  -0.42846419691094118   0.40814736880361163   0.49993904633239444
LJ  0.47791543633628741   -0.33848491461517549   -0.484861410606514
LJ  -0.26557331305162618   0.27979095385049152   -0.42081067438220598
LJ  -0.28454680090553042   0.49578897385231063   0.22759164756946285
LJ  0.056554616435458019   -0.49374668414352352   -0.46763182696429634
LJ  -0.20746183336159416   -0.34224615073097442   0.041180945286114073
LJ  -0.089523812443161391   -0.49044287756841709   0.3855305684864529
LJ  0.044789457940497962   0.42463291705869077   0.088726837828428357
LJ  0.32540662566608081   -0.30894661682639868   0.19686203956985573
LJ  0.1988215660545932   -0.48778720380811469   0.23347566832092187
LJ  0.45075899224680127   0.42030301594064673   0.32129549965552301
LJ  -0.47743499783381843   -0.25579376962141853   0.095036219295047283
LJ  -0.31720861626888419   -0.062201350714293759   0.16601403417014124
LJ  -0.41998448801391469   0.24722566558444939   0.3181227189325409
LJ  -0.39221294571038456   -0.20028928782835012   0.30141882512967039
LJ  -0.37129869500629054   -0.46337324726161089   0.026834617608764003
LJ  -0.04329843619762392   -0.41430431732109807   0.17196886241207529
LJ  0.034033411083053612   -0.056967176111213172   0.34606831942687299
LJ  0.11687113724905158   -0.27266872517591068   0.18097393166012607
LJ  0.31636827608466805   -0.11813564626258362   0.10180809297497979
LJ  0.47255254799517327   0.06895111930826224   0.20252535430464258
LJ  -0.0029683600002759847   0.15337950415494028   -0.42581845328708878
LJ  0.413445326591936   -0.18765779122215492   0.32624927708337464
LJ  -0.38651220419677368   0.0094167591923490813   0.33162658234724379
LJ  0.36211079225232823   0.27905176016810718   0.22433379067297274
LJ  0.36965220621511602   0.35850092985058596   -0.45152040677377747
LJ  -0.040568534643619258   0.041566486836777897   0.061382390762413086
LJ  -0.022212155940200914   0.35925178936668561   0.26696678172679539
LJ  0.14255319895062468   0.075344811631806993   -0.026859942228569654
LJ  -0.23044249780892137   0.3087279655643852   0.31035960785406513
LJ  -0.19924958687886665   0.23862584581237445   -0.2507041441290232
LJ  0.1242474460133457   -0.062723720175662717   0.15662393640548733
LJ  0.30160675974514434   0.29731648115989578   -0.27124813493054417
LJ  0.1957836059992942   0.36066043111325985   0.44709082885522855
LJ  0.36604354238020498   0.15767010401963721   -0.40707888706327078
