108
#Comment!
LJ  -0.4848314573968423   0.26870063946079692   -0.30894327801540211
LJ  -0.22375921525302192   -0.46662293408428318   -0.45869539510704482
LJ  0.11639491349140295   -0.18948609718409612   -0.34932673728735564
LJ  -0.45749358663626077   -0.080401167784942218   -0.48394795820601522
LJ  0.050702586584263229   -0.35888211387311081   0.36132033740750658
LJ  0.20337916432551528   -0.25805444593794236   0.47371409340263876
LJ  -0.10741667139071645   -0.29839739806168142   0.46929414254770729
LJ  -0.095763744815444266   0.44190810124777979   -0.32050077592941018
LJ  0.30430387236092621   -0.47568797155993708   0.45295245792840133
LJ  0.44748719609472659   0.46667861650761228   -0.29854778469380311
LJ  -0.025029783639273051   -0.35382873893918182   -0.34853514810450442
LJ  0.30230150586520904   0.48241971357136559   -0.15763852764162678
LJ  0.3647023619158225   -0.035958030606706187   0.47432750339740826
LJ  -0.19240193253919363   0.06898368417117591   -0.4544012464168144
LJ  -0.24247699150819121   -0.14639563372607256   -0.41010289705206132
LJ  -0.37777918488245704   -0.43362513718427331   0.41202164775940359
LJ  -0.2058053428333747   -0.32186344935398881   0.2806998476762807
LJ  -0.080004482753692485   -0.191027670041094   0.1505048776299423
LJ  -0.019321679331698458   -0.10866555094481964   -0.47570637415385147
LJ  0.15973870596137391   0.0021820286255921791   -0.44882361249306657
LJ  0.035434497134083122   0.14578932568055408   0.22608556156469253
LJ  0.41719694766654081   0.13089537678097576   0.3806798980256188
LJ  0.23470921401306544   -0.098763843996236   0.33837969885327307
LJ  -0.17768328668937186   -0.094543742471733597   0.35067679296443927
LJ  -0.42463933212164728   0.16464343433067574   -0.48748935154008954
LJ  -0.10489358611437438   0.16833589004364924   0.38867330259482952
LJ  -0.38104557059979455   -0.41122644336960168   -0.16569120656476444
LJ  -0.34218467172920325   0.43854594264915969   -0.28596934663609147
LJ  -0.20133139252542925   0.095692354362658702   0.19761995884408504
LJ  -0.091065922698803911   0.33887706797989775   0.47034964239460098
LJ  -0.31850027549708271   -0.31018026429928169   -0.38887722201262354
LJ  -0.45459781745180239   0.12681328522715077   -0.066285228370758384
LJ  0.20324453271543033   0.15996994280839738   0.42277613344428089
LJ  0.17238792225512073   0.12815476932458514   -0.27401370672119774
LJ  0.12590332993413367   0.33726177261253359   -0.35243943767663499
LJ  -0.48168633492206175   0.34555691147852768   -0.11710949858508876
LJ  -0.17223077475872925   -0.33821493643564787   -0.20507399186388531
LJ  0.29762123037162402   -0.27074815653786699   -0.31840538548157665
LJ  -0.46367194363911751   -0.39380487403568826   0.23409060981360313
LJ  -0.4574348397853234   -0.1932486902437737   -0.09916989452126318
LJ  0.09359262148101348   0.46840474091620743   -0.19686743970820153
LJ  -0.080620454622238297   -0.13129364508486546   -0.23774435251164441
LJ  -0.37736095837324779   -0.09504327213325181   -0.27890654558350225
LJ  -0.17026149698849719   0.45838285359454667   0.05733550324492559
LJ  -0.012533688755877135   -0.30249778601506128   -0.023514931059564474
LJ  0.48638309159861914   -0.059769112066758098   0.054242218098927417
LJ  0.18882701415055042   -0.46772787011802364   0.0043315554197355466
LJ  0.40723875768834678   -0.34474490720729378   -0.089634825369531726
LJ  0.4164674806727478   -0.1107801326422278   -0.28064288910158169
LJ  -0.19359781801193165   0.039291000387016779   -0.21574620934810276
LJ  -0.22439319660271556   0.0061971526347371535   -0.0030335903261144415
LJ  -0.49213792241448617   -0.31376879937519675   -0.28087639476904253
LJ  -0.023702812664419835   0.13942972273205537   -0.20696868196003107
LJ  0.3535707759231298   0.1221784991233297   -0.17888755841740589
LJ  -0.23874715983474096   -0.16670176261087169   -0.13666697329875996
LJ  0.21293977087956831   -0.27231678285528771   0.0094340968495675373
LJ  0.16442260366706837   -0.34026458712316576   -0.19160813232518792
LJ  -0.47520117207834484   0.073991060638165115   -0.27405392861948391
LJ  0.07152174494474188   -0.10522038524145133   -0.040002730511902757
LJ  0.22779170628244388   -0.03334050586096924   -0.20147875873922788
LJ  0.40091886119676745   0.47263873906102855   0.11754438488730844
LJ  -0.39990894574654523   0.30532025457437856   0.12047663809433702
LJ  0.2542287782152407   0.063152186688921072   0.21276993144530135
LJ  -0.21369861001718624   0.22864543953920716   0.030863597971870264
LJ  -0.067205774798159604   0.379016195054308   -0.11714350517613605
LJ  0.032196744427910352   0.24029778576539823   0.046462679781188121
LJ  -0.2801955429990079   0.38881818233647303   -0.089289165289770073
LJ  0.34881043938974621   -0.15505235814457338   -0.082940180058492394
LJ  0.24690983080518875   0.33341953254520834   0.037678474970988661
LJ  0.24069975118593781   -0.4571003184570876   -0.34848893204632603
LJ  0.13247702169164849   0.27335900540103286   -0.12881839406741166
LJ  0.35008937300601878   0.14779964680071539   0.03114107223410283
LJ  0.17757669911251789   0.30384642405662643   0.25022461858245393
LJ  -0.42848605186137789   0.40818842146457052   0.49965306443053514
LJ  0.47789503062690158   -0.33834164453006887   -0.48481808147706051
LJ  -0.26584355852994229   0.27968212829677236   -0.4208640462097204
LJ  -0.28426391950008528   0.49571086571215506   0.22742759071829005
LJ  0.056511259589238222   -0.49389219554830327   -0.46765125549128622
LJ  -0.20738816826081818   -0.34237027531383185   0.041064953353556422
LJ  -0.089315532183036103   -0.49087260134963623   0.38520589825980445
LJ  0.044959253788774516   0.42477378936416538   0.088562197316458743
LJ  0.32525289866716461   -0.30905920328339465   0.19698910460803351
LJ  0.19919182272889119   -0.48758326630090737   0.23369209681309133
LJ  0.45053520387709162   0.42042502151704897   0.32141790319257912
LJ  -0.47769292138736641   -0.25579052968456034   0.094896393595026121
LJ  -0.31737878489770349   -0.061931466339914726   0.16595849018670961
LJ  -0.42046202416469142   0.24733158877923292   0.31801374766699148
LJ  -0.39211334164155998   -0.20048319499218617   0.30143997229288488
LJ  -0.37175435079640662   -0.46303487539433735   0.026554261108608673
LJ  -0.043203408544830631   -0.41391147069106216   0.17214663462602697
LJ  0.033829869911726304   -0.056496824559514464   0.34634468016966646
LJ  0.11680079144521481   -0.27226254210454803   0.18121981255393277
LJ  0.31669725746558247   -0.11811160369039185   0.10192925792107314
LJ  0.47259480468924281   0.06864198512160169   0.20252697090702057
LJ  -0.0029594297015087699   0.15324269328418275   -0.42599052605649157
LJ  0.41369569770175169   -0.18798301707761836   0.32608469666262191
LJ  -0.38645055156371966   0.0097223021391404756   0.33148295206487449
LJ  0.36212135677259077   0.27926834197210904   0.22439759937114909
LJ  0.36991742772942815   0.35849352464049661   -0.45174738459273595
LJ  -0.040884939671967754   0.041603970709404324   0.061195850895067218
LJ  -0.022117185531216103   0.35916413290141869   0.26717085366881921
LJ  0.14260794786268871   0.075459791594196468   -0.027022074915976399
LJ  -0.23031268154550955   0.30884255641771358   0.31021770602750315
LJ  -0.19874414782318042   0.23851604582316493   -0.25087345684490797
LJ  0.12392490084561332   -0.062634762642464495   0.15663382807355963
LJ  0.30143716046383767   0.29715839330817978   -0.27090996020795932
LJ  0.19567451258874102   0.36053361662640865   0.44710900414107563
LJ  0.36616812926131975   0.15765254068344348   -0.40712188932231952
